# vtk DataFile Version 2.0
LIGGGHTS mesh/VTK export
ASCII
DATASET UNSTRUCTURED_GRID
POINTS 4848 float
-0.026109 0.144235 -0.016196
-0.035730 0.142636 -0.012808
-0.023123 0.145369 -0.006013
-0.035730 0.142636 -0.012808
-0.032842 0.142836 -0.002455
-0.023123 0.145369 -0.006013
-0.035730 0.142636 -0.012808
-0.045378 0.140057 -0.009373
-0.032842 0.142836 -0.002455
-0.023123 0.145369 -0.006013
-0.032842 0.142836 -0.002455
-0.020296 0.145615 0.004445
-0.045378 0.140057 -0.009373
-0.042543 0.139267 0.001069
-0.032842 0.142836 -0.002455
-0.042543 0.139267 0.001069
-0.030072 0.142077 0.008099
-0.032842 0.142836 -0.002455
-0.042543 0.139267 0.001069
-0.039797 0.137453 0.011664
-0.030072 0.142077 0.008099
-0.032842 0.142836 -0.002455
-0.030072 0.142077 0.008099
-0.020296 0.145615 0.004445
-0.045378 0.140057 -0.009373
-0.055013 0.136452 -0.005960
-0.042543 0.139267 0.001069
-0.055013 0.136452 -0.005960
-0.052194 0.134626 0.004507
-0.042543 0.139267 0.001069
-0.055013 0.136452 -0.005960
-0.064590 0.131793 -0.002650
-0.052194 0.134626 0.004507
-0.042543 0.139267 0.001069
-0.052194 0.134626 0.004507
-0.039797 0.137453 0.011664
-0.020296 0.145615 0.004445
-0.030072 0.142077 0.008099
-0.017601 0.144882 0.015131
-0.030072 0.142077 0.008099
-0.027399 0.140274 0.018822
-0.017601 0.144882 0.015131
-0.030072 0.142077 0.008099
-0.039797 0.137453 0.011664
-0.027399 0.140274 0.018822
-0.017601 0.144882 0.015131
-0.027399 0.140274 0.018822
-0.015000 0.143091 0.025981
0.018240 0.139663 -0.031592
0.006985 0.142819 -0.027453
0.010342 0.146757 -0.017912
0.006985 0.142819 -0.027453
-0.001179 0.147651 -0.013313
0.010342 0.146757 -0.017912
0.006985 0.142819 -0.027453
-0.004195 0.144565 -0.023442
-0.001179 0.147651 -0.013313
0.010342 0.146757 -0.017912
-0.001179 0.147651 -0.013313
0.001832 0.149899 -0.003174
-0.004195 0.144565 -0.023442
-0.012290 0.147090 -0.009422
-0.001179 0.147651 -0.013313
-0.012290 0.147090 -0.009422
-0.009223 0.148360 0.000620
-0.001179 0.147651 -0.013313
-0.012290 0.147090 -0.009422
-0.020296 0.145615 0.004445
-0.009223 0.148360 0.000620
-0.001179 0.147651 -0.013313
-0.009223 0.148360 0.000620
0.001832 0.149899 -0.003174
-0.004195 0.144565 -0.023442
-0.015243 0.144997 -0.019661
-0.012290 0.147090 -0.009422
-0.015243 0.144997 -0.019661
-0.023123 0.145369 -0.006013
-0.012290 0.147090 -0.009422
-0.015243 0.144997 -0.019661
-0.026109 0.144235 -0.016196
-0.023123 0.145369 -0.006013
-0.012290 0.147090 -0.009422
-0.023123 0.145369 -0.006013
-0.020296 0.145615 0.004445
0.001832 0.149899 -0.003174
-0.009223 0.148360 0.000620
-0.006796 0.148608 0.011770
-0.009223 0.148360 0.000620
-0.017601 0.144882 0.015131
-0.006796 0.148608 0.011770
-0.009223 0.148360 0.000620
-0.020296 0.145615 0.004445
-0.017601 0.144882 0.015131
-0.006796 0.148608 0.011770
-0.017601 0.144882 0.015131
-0.015000 0.143091 0.025981
-0.361410 0.060000 -0.174019
-0.346730 0.069415 -0.173825
-0.357715 0.066895 -0.180420
-0.346730 0.069415 -0.173825
-0.342453 0.074381 -0.181233
-0.357715 0.066895 -0.180420
-0.346730 0.069415 -0.173825
-0.331536 0.076728 -0.174522
-0.342453 0.074381 -0.181233
-0.357715 0.066895 -0.180420
-0.342453 0.074381 -0.181233
-0.353368 0.072037 -0.187948
-0.331536 0.076728 -0.174522
-0.326648 0.079471 -0.182988
-0.342453 0.074381 -0.181233
-0.326648 0.079471 -0.182988
-0.337711 0.077068 -0.189446
-0.342453 0.074381 -0.181233
-0.326648 0.079471 -0.182988
-0.321908 0.079501 -0.191197
-0.337711 0.077068 -0.189446
-0.342453 0.074381 -0.181233
-0.337711 0.077068 -0.189446
-0.353368 0.072037 -0.187948
-0.331536 0.076728 -0.174522
-0.316048 0.081738 -0.175727
-0.326648 0.079471 -0.182988
-0.316048 0.081738 -0.175727
-0.311163 0.081994 -0.184187
-0.326648 0.079471 -0.182988
-0.316048 0.081738 -0.175727
-0.300441 0.084473 -0.177138
-0.311163 0.081994 -0.184187
-0.326648 0.079471 -0.182988
-0.311163 0.081994 -0.184187
-0.321908 0.079501 -0.191197
-0.353368 0.072037 -0.187948
-0.337711 0.077068 -0.189446
-0.348507 0.074736 -0.196367
-0.337711 0.077068 -0.189446
-0.332676 0.076996 -0.198168
-0.348507 0.074736 -0.196367
-0.337711 0.077068 -0.189446
-0.321908 0.079501 -0.191197
-0.332676 0.076996 -0.198168
-0.348507 0.074736 -0.196367
-0.332676 0.076996 -0.198168
-0.343466 0.074478 -0.205099
-0.361410 0.060000 -0.174019
-0.349101 0.063300 -0.166913
-0.346730 0.069415 -0.173825
-0.349101 0.063300 -0.166913
-0.334233 0.072633 -0.167031
-0.346730 0.069415 -0.173825
-0.349101 0.063300 -0.166913
-0.336781 0.066545 -0.159800
-0.334233 0.072633 -0.167031
-0.346730 0.069415 -0.173825
-0.334233 0.072633 -0.167031
-0.331536 0.076728 -0.174522
-0.336781 0.066545 -0.159800
-0.321728 0.075804 -0.160230
-0.334233 0.072633 -0.167031
-0.321728 0.075804 -0.160230
-0.318891 0.079759 -0.167962
-0.334233 0.072633 -0.167031
-0.321728 0.075804 -0.160230
-0.306210 0.082780 -0.161466
-0.318891 0.079759 -0.167962
-0.334233 0.072633 -0.167031
-0.318891 0.079759 -0.167962
-0.331536 0.076728 -0.174522
-0.336781 0.066545 -0.159800
-0.324452 0.069744 -0.152682
-0.321728 0.075804 -0.160230
-0.324452 0.069744 -0.152682
-0.309221 0.078928 -0.153411
-0.321728 0.075804 -0.160230
-0.324452 0.069744 -0.152682
-0.312115 0.072903 -0.145559
-0.309221 0.078928 -0.153411
-0.321728 0.075804 -0.160230
-0.309221 0.078928 -0.153411
-0.306210 0.082780 -0.161466
-0.331536 0.076728 -0.174522
-0.318891 0.079759 -0.167962
-0.316048 0.081738 -0.175727
-0.318891 0.079759 -0.167962
-0.303249 0.084556 -0.169434
-0.316048 0.081738 -0.175727
-0.318891 0.079759 -0.167962
-0.306210 0.082780 -0.161466
-0.303249 0.084556 -0.169434
-0.316048 0.081738 -0.175727
-0.303249 0.084556 -0.169434
-0.300441 0.084473 -0.177138
-0.023231 -0.040277 -0.113106
-0.019784 -0.055373 -0.107632
-0.035053 -0.057112 -0.113287
-0.019784 -0.055373 -0.107632
-0.032329 -0.071573 -0.106563
-0.035053 -0.057112 -0.113287
-0.019784 -0.055373 -0.107632
-0.016986 -0.070258 -0.101035
-0.032329 -0.071573 -0.106563
-0.035053 -0.057112 -0.113287
-0.032329 -0.071573 -0.106563
-0.047670 -0.072725 -0.112093
-0.016986 -0.070258 -0.101035
-0.030228 -0.085415 -0.098756
-0.032329 -0.071573 -0.106563
-0.030228 -0.085415 -0.098756
-0.045618 -0.086085 -0.104203
-0.032329 -0.071573 -0.106563
-0.030228 -0.085415 -0.098756
-0.044128 -0.098448 -0.095340
-0.045618 -0.086085 -0.104203
-0.032329 -0.071573 -0.106563
-0.045618 -0.086085 -0.104203
-0.047670 -0.072725 -0.112093
-0.016986 -0.070258 -0.101035
-0.014830 -0.084577 -0.093324
-0.030228 -0.085415 -0.098756
-0.014830 -0.084577 -0.093324
-0.028715 -0.098298 -0.089935
-0.030228 -0.085415 -0.098756
-0.014830 -0.084577 -0.093324
-0.013284 -0.097981 -0.084558
-0.028715 -0.098298 -0.089935
-0.030228 -0.085415 -0.098756
-0.028715 -0.098298 -0.089935
-0.044128 -0.098448 -0.095340
-0.047670 -0.072725 -0.112093
-0.045618 -0.086085 -0.104203
-0.060997 -0.086588 -0.109669
-0.045618 -0.086085 -0.104203
-0.059524 -0.098432 -0.100777
-0.060997 -0.086588 -0.109669
-0.045618 -0.086085 -0.104203
-0.044128 -0.098448 -0.095340
-0.059524 -0.098432 -0.100777
-0.060997 -0.086588 -0.109669
-0.059524 -0.098432 -0.100777
-0.074899 -0.098252 -0.106249
-0.243873 -0.097420 -0.133393
-0.236015 -0.098584 -0.122505
-0.248615 -0.095729 -0.129246
-0.236015 -0.098584 -0.122505
-0.240847 -0.096064 -0.118201
-0.248615 -0.095729 -0.129246
-0.236015 -0.098584 -0.122505
-0.228309 -0.098982 -0.111354
-0.240847 -0.096064 -0.118201
-0.248615 -0.095729 -0.129246
-0.240847 -0.096064 -0.118201
-0.253364 -0.093148 -0.125086
-0.228309 -0.098982 -0.111354
-0.233179 -0.095588 -0.106992
-0.240847 -0.096064 -0.118201
-0.233179 -0.095588 -0.106992
-0.245630 -0.092625 -0.113990
-0.240847 -0.096064 -0.118201
-0.233179 -0.095588 -0.106992
-0.237977 -0.091229 -0.102755
-0.245630 -0.092625 -0.113990
-0.240847 -0.096064 -0.118201
-0.245630 -0.092625 -0.113990
-0.253364 -0.093148 -0.125086
-0.228309 -0.098982 -0.111354
-0.220726 -0.098532 -0.099989
-0.233179 -0.095588 -0.106992
-0.220726 -0.098532 -0.099989
-0.225606 -0.094206 -0.095613
-0.233179 -0.095588 -0.106992
-0.220726 -0.098532 -0.099989
-0.213232 -0.097167 -0.088469
-0.225606 -0.094206 -0.095613
-0.233179 -0.095588 -0.106992
-0.225606 -0.094206 -0.095613
-0.237977 -0.091229 -0.102755
-0.253364 -0.093148 -0.125086
-0.245630 -0.092625 -0.113990
-0.258078 -0.089646 -0.120987
-0.245630 -0.092625 -0.113990
-0.250344 -0.088234 -0.109895
-0.258078 -0.089646 -0.120987
-0.245630 -0.092625 -0.113990
-0.237977 -0.091229 -0.102755
-0.250344 -0.088234 -0.109895
-0.258078 -0.089646 -0.120987
-0.250344 -0.088234 -0.109895
-0.262708 -0.085218 -0.117033
-0.243873 -0.097420 -0.133393
-0.234998 -0.098880 -0.137827
-0.228418 -0.100803 -0.127080
-0.234998 -0.098880 -0.137827
-0.219412 -0.101809 -0.131739
-0.228418 -0.100803 -0.127080
-0.234998 -0.098880 -0.137827
-0.225971 -0.098710 -0.142524
-0.219412 -0.101809 -0.131739
-0.228418 -0.100803 -0.127080
-0.219412 -0.101809 -0.131739
-0.212901 -0.104064 -0.120872
-0.225971 -0.098710 -0.142524
-0.210200 -0.101087 -0.136756
-0.219412 -0.101809 -0.131739
-0.210200 -0.101087 -0.136756
-0.203737 -0.104585 -0.125806
-0.219412 -0.101809 -0.131739
-0.210200 -0.101087 -0.136756
-0.194347 -0.103263 -0.131130
-0.203737 -0.104585 -0.125806
-0.219412 -0.101809 -0.131739
-0.203737 -0.104585 -0.125806
-0.212901 -0.104064 -0.120872
-0.225971 -0.098710 -0.142524
-0.216761 -0.096691 -0.147537
-0.210200 -0.101087 -0.136756
-0.216761 -0.096691 -0.147537
-0.200837 -0.098404 -0.142034
-0.210200 -0.101087 -0.136756
-0.216761 -0.096691 -0.147537
-0.207493 -0.092638 -0.152650
-0.200837 -0.098404 -0.142034
-0.210200 -0.101087 -0.136756
-0.200837 -0.098404 -0.142034
-0.194347 -0.103263 -0.131130
-0.212901 -0.104064 -0.120872
-0.203737 -0.104585 -0.125806
-0.197325 -0.107194 -0.114767
-0.203737 -0.104585 -0.125806
-0.187973 -0.107189 -0.120026
-0.197325 -0.107194 -0.114767
-0.203737 -0.104585 -0.125806
-0.194347 -0.103263 -0.131130
-0.187973 -0.107189 -0.120026
-0.197325 -0.107194 -0.114767
-0.187973 -0.107189 -0.120026
-0.181666 -0.110183 -0.108805
-0.213232 -0.097167 -0.088469
-0.220726 -0.098532 -0.099989
-0.205406 -0.102820 -0.093440
-0.220726 -0.098532 -0.099989
-0.212930 -0.102960 -0.104908
-0.205406 -0.102820 -0.093440
-0.220726 -0.098532 -0.099989
-0.228309 -0.098982 -0.111354
-0.212930 -0.102960 -0.104908
-0.205406 -0.102820 -0.093440
-0.212930 -0.102960 -0.104908
-0.197476 -0.106829 -0.098590
-0.228309 -0.098982 -0.111354
-0.220591 -0.102259 -0.116137
-0.212930 -0.102960 -0.104908
-0.220591 -0.102259 -0.116137
-0.205100 -0.105816 -0.109885
-0.212930 -0.102960 -0.104908
-0.220591 -0.102259 -0.116137
-0.212901 -0.104064 -0.120872
-0.205100 -0.105816 -0.109885
-0.212930 -0.102960 -0.104908
-0.205100 -0.105816 -0.109885
-0.197476 -0.106829 -0.098590
-0.228309 -0.098982 -0.111354
-0.236015 -0.098584 -0.122505
-0.220591 -0.102259 -0.116137
-0.236015 -0.098584 -0.122505
-0.228418 -0.100803 -0.127080
-0.220591 -0.102259 -0.116137
-0.236015 -0.098584 -0.122505
-0.243873 -0.097420 -0.133393
-0.228418 -0.100803 -0.127080
-0.220591 -0.102259 -0.116137
-0.228418 -0.100803 -0.127080
-0.212901 -0.104064 -0.120872
-0.197476 -0.106829 -0.098590
-0.205100 -0.105816 -0.109885
-0.189544 -0.109246 -0.103744
-0.205100 -0.105816 -0.109885
-0.197325 -0.107194 -0.114767
-0.189544 -0.109246 -0.103744
-0.205100 -0.105816 -0.109885
-0.212901 -0.104064 -0.120872
-0.197325 -0.107194 -0.114767
-0.189544 -0.109246 -0.103744
-0.197325 -0.107194 -0.114767
-0.181666 -0.110183 -0.108805
0.000985 0.028964 -0.105112
-0.003951 0.011095 -0.109047
-0.013965 0.024025 -0.112068
-0.003951 0.011095 -0.109047
-0.019109 0.006696 -0.115642
-0.013965 0.024025 -0.112068
-0.003951 0.011095 -0.109047
-0.009642 -0.005969 -0.111673
-0.019109 0.006696 -0.115642
-0.013965 0.024025 -0.112068
-0.019109 0.006696 -0.115642
-0.028975 0.019298 -0.118920
-0.009642 -0.005969 -0.111673
-0.024973 -0.009945 -0.117970
-0.019109 0.006696 -0.115642
-0.024973 -0.009945 -0.117970
-0.034313 0.002528 -0.122157
-0.019109 0.006696 -0.115642
-0.024973 -0.009945 -0.117970
-0.040342 -0.013770 -0.124200
-0.034313 0.002528 -0.122157
-0.019109 0.006696 -0.115642
-0.034313 0.002528 -0.122157
-0.028975 0.019298 -0.118920
-0.009642 -0.005969 -0.111673
-0.016051 -0.023111 -0.113058
-0.024973 -0.009945 -0.117970
-0.016051 -0.023111 -0.113058
-0.031549 -0.026780 -0.119063
-0.024973 -0.009945 -0.117970
-0.016051 -0.023111 -0.113058
-0.023231 -0.040277 -0.113106
-0.031549 -0.026780 -0.119063
-0.024973 -0.009945 -0.117970
-0.031549 -0.026780 -0.119063
-0.040342 -0.013770 -0.124200
-0.028975 0.019298 -0.118920
-0.034313 0.002528 -0.122157
-0.044039 0.014787 -0.125677
-0.034313 0.002528 -0.122157
-0.049559 -0.001417 -0.128601
-0.044039 0.014787 -0.125677
-0.034313 0.002528 -0.122157
-0.040342 -0.013770 -0.124200
-0.049559 -0.001417 -0.128601
-0.044039 0.014787 -0.125677
-0.049559 -0.001417 -0.128601
-0.059155 0.010496 -0.132346
-0.114163 -0.120396 -0.031271
-0.099726 -0.127136 -0.034745
-0.101771 -0.123256 -0.024117
-0.099726 -0.127136 -0.034745
-0.087224 -0.129964 -0.027782
-0.101771 -0.123256 -0.024117
-0.099726 -0.127136 -0.034745
-0.085158 -0.131834 -0.038448
-0.087224 -0.129964 -0.027782
-0.101771 -0.123256 -0.024117
-0.087224 -0.129964 -0.027782
-0.089379 -0.126108 -0.016962
-0.085158 -0.131834 -0.038448
-0.072559 -0.134595 -0.031649
-0.087224 -0.129964 -0.027782
-0.072559 -0.134595 -0.031649
-0.074721 -0.132786 -0.020817
-0.087224 -0.129964 -0.027782
-0.072559 -0.134595 -0.031649
-0.059949 -0.137352 -0.024869
-0.074721 -0.132786 -0.020817
-0.087224 -0.129964 -0.027782
-0.074721 -0.132786 -0.020817
-0.089379 -0.126108 -0.016962
-0.085158 -0.131834 -0.038448
-0.070583 -0.134574 -0.042161
-0.072559 -0.134595 -0.031649
-0.070583 -0.134574 -0.042161
-0.057881 -0.137242 -0.035540
-0.072559 -0.134595 -0.031649
-0.070583 -0.134574 -0.042161
-0.055803 -0.135387 -0.046229
-0.057881 -0.137242 -0.035540
-0.072559 -0.134595 -0.031649
-0.057881 -0.137242 -0.035540
-0.059949 -0.137352 -0.024869
-0.089379 -0.126108 -0.016962
-0.074721 -0.132786 -0.020817
-0.076985 -0.128954 -0.009806
-0.074721 -0.132786 -0.020817
-0.062217 -0.135601 -0.013850
-0.076985 -0.128954 -0.009806
-0.074721 -0.132786 -0.020817
-0.059949 -0.137352 -0.024869
-0.062217 -0.135601 -0.013850
-0.076985 -0.128954 -0.009806
-0.062217 -0.135601 -0.013850
-0.064590 -0.131793 -0.002650
-0.327916 0.050466 -0.232032
-0.320106 0.062523 -0.219939
-0.311273 0.050696 -0.225651
-0.320106 0.062523 -0.219939
-0.303488 0.063547 -0.213514
-0.311273 0.050696 -0.225651
-0.320106 0.062523 -0.219939
-0.313101 0.072495 -0.206452
-0.303488 0.063547 -0.213514
-0.311273 0.050696 -0.225651
-0.303488 0.063547 -0.213514
-0.294606 0.050700 -0.219312
-0.313101 0.072495 -0.206452
-0.296573 0.074309 -0.199871
-0.303488 0.063547 -0.213514
-0.296573 0.074309 -0.199871
-0.286829 0.064358 -0.207160
-0.303488 0.063547 -0.213514
-0.296573 0.074309 -0.199871
-0.279989 0.075937 -0.193387
-0.286829 0.064358 -0.207160
-0.303488 0.063547 -0.213514
-0.286829 0.064358 -0.207160
-0.294606 0.050700 -0.219312
-0.313101 0.072495 -0.206452
-0.306641 0.079869 -0.192020
-0.296573 0.074309 -0.199871
-0.306641 0.079869 -0.192020
-0.290264 0.082396 -0.185177
-0.296573 0.074309 -0.199871
-0.306641 0.079869 -0.192020
-0.300441 0.084473 -0.177138
-0.290264 0.082396 -0.185177
-0.296573 0.074309 -0.199871
-0.290264 0.082396 -0.185177
-0.279989 0.075937 -0.193387
-0.294606 0.050700 -0.219312
-0.286829 0.064358 -0.207160
-0.277917 0.050476 -0.213009
-0.286829 0.064358 -0.207160
-0.270132 0.064949 -0.200872
-0.277917 0.050476 -0.213009
-0.286829 0.064358 -0.207160
-0.279989 0.075937 -0.193387
-0.270132 0.064949 -0.200872
-0.277917 0.050476 -0.213009
-0.270132 0.064949 -0.200872
-0.261212 0.050021 -0.206735
-0.343466 0.074478 -0.205099
-0.332676 0.076996 -0.198168
-0.338675 0.071319 -0.213399
-0.332676 0.076996 -0.198168
-0.327989 0.074215 -0.206286
-0.338675 0.071319 -0.213399
-0.332676 0.076996 -0.198168
-0.321908 0.079501 -0.191197
-0.327989 0.074215 -0.206286
-0.338675 0.071319 -0.213399
-0.327989 0.074215 -0.206286
-0.334434 0.065834 -0.220744
-0.321908 0.079501 -0.191197
-0.317507 0.077219 -0.198820
-0.327989 0.074215 -0.206286
-0.317507 0.077219 -0.198820
-0.323738 0.069171 -0.213648
-0.327989 0.074215 -0.206286
-0.317507 0.077219 -0.198820
-0.313101 0.072495 -0.206452
-0.323738 0.069171 -0.213648
-0.327989 0.074215 -0.206286
-0.323738 0.069171 -0.213648
-0.334434 0.065834 -0.220744
-0.321908 0.079501 -0.191197
-0.311163 0.081994 -0.184187
-0.317507 0.077219 -0.198820
-0.311163 0.081994 -0.184187
-0.306641 0.079869 -0.192020
-0.317507 0.077219 -0.198820
-0.311163 0.081994 -0.184187
-0.300441 0.084473 -0.177138
-0.306641 0.079869 -0.192020
-0.317507 0.077219 -0.198820
-0.306641 0.079869 -0.192020
-0.313101 0.072495 -0.206452
-0.334434 0.065834 -0.220744
-0.323738 0.069171 -0.213648
-0.330851 0.058704 -0.226950
-0.323738 0.069171 -0.213648
-0.320106 0.062523 -0.219939
-0.330851 0.058704 -0.226950
-0.323738 0.069171 -0.213648
-0.313101 0.072495 -0.206452
-0.320106 0.062523 -0.219939
-0.330851 0.058704 -0.226950
-0.320106 0.062523 -0.219939
-0.327916 0.050466 -0.232032
-0.327916 -0.050466 -0.232032
-0.324989 -0.038667 -0.237103
-0.315548 -0.047252 -0.229246
-0.324989 -0.038667 -0.237103
-0.312917 -0.034719 -0.233802
-0.315548 -0.047252 -0.229246
-0.324989 -0.038667 -0.237103
-0.322975 -0.026121 -0.240590
-0.312917 -0.034719 -0.233802
-0.315548 -0.047252 -0.229246
-0.312917 -0.034719 -0.233802
-0.303241 -0.043474 -0.226351
-0.322975 -0.026121 -0.240590
-0.311167 -0.021286 -0.236833
-0.312917 -0.034719 -0.233802
-0.311167 -0.021286 -0.236833
-0.300897 -0.030061 -0.230411
-0.312917 -0.034719 -0.233802
-0.311167 -0.021286 -0.236833
-0.299480 -0.016107 -0.232866
-0.300897 -0.030061 -0.230411
-0.312917 -0.034719 -0.233802
-0.300897 -0.030061 -0.230411
-0.303241 -0.043474 -0.226351
-0.322975 -0.026121 -0.240590
-0.321798 -0.013156 -0.242630
-0.311167 -0.021286 -0.236833
-0.321798 -0.013156 -0.242630
-0.310299 -0.007722 -0.238336
-0.311167 -0.021286 -0.236833
-0.321798 -0.013156 -0.242630
-0.321410 0.000001 -0.243301
-0.310299 -0.007722 -0.238336
-0.311167 -0.021286 -0.236833
-0.310299 -0.007722 -0.238336
-0.299480 -0.016107 -0.232866
-0.303241 -0.043474 -0.226351
-0.300897 -0.030061 -0.230411
-0.291019 -0.039164 -0.223311
-0.300897 -0.030061 -0.230411
-0.289000 -0.025038 -0.226809
-0.291019 -0.039164 -0.223311
-0.300897 -0.030061 -0.230411
-0.299480 -0.016107 -0.232866
-0.289000 -0.025038 -0.226809
-0.291019 -0.039164 -0.223311
-0.289000 -0.025038 -0.226809
-0.278899 -0.034363 -0.220094
-0.026109 0.144235 -0.016196
-0.015243 0.144997 -0.019661
-0.033021 0.142008 -0.025464
-0.015243 0.144997 -0.019661
-0.022130 0.142141 -0.028974
-0.033021 0.142008 -0.025464
-0.015243 0.144997 -0.019661
-0.004195 0.144565 -0.023442
-0.022130 0.142141 -0.028974
-0.033021 0.142008 -0.025464
-0.022130 0.142141 -0.028974
-0.039962 0.139446 -0.034683
-0.004195 0.144565 -0.023442
-0.011085 0.141035 -0.032751
-0.022130 0.142141 -0.028974
-0.011085 0.141035 -0.032751
-0.029061 0.138937 -0.038209
-0.022130 0.142141 -0.028974
-0.011085 0.141035 -0.032751
-0.018036 0.137150 -0.041951
-0.029061 0.138937 -0.038209
-0.022130 0.142141 -0.028974
-0.029061 0.138937 -0.038209
-0.039962 0.139446 -0.034683
-0.004195 0.144565 -0.023442
0.006985 0.142819 -0.027453
-0.011085 0.141035 -0.032751
0.006985 0.142819 -0.027453
0.000062 0.138582 -0.036702
-0.011085 0.141035 -0.032751
0.006985 0.142819 -0.027453
0.018240 0.139663 -0.031592
0.000062 0.138582 -0.036702
-0.011085 0.141035 -0.032751
0.000062 0.138582 -0.036702
-0.018036 0.137150 -0.041951
-0.039962 0.139446 -0.034683
-0.029061 0.138937 -0.038209
-0.046941 0.136548 -0.043837
-0.029061 0.138937 -0.038209
-0.036047 0.135387 -0.047351
-0.046941 0.136548 -0.043837
-0.029061 0.138937 -0.038209
-0.018036 0.137150 -0.041951
-0.036047 0.135387 -0.047351
-0.046941 0.136548 -0.043837
-0.036047 0.135387 -0.047351
-0.053966 0.133315 -0.052909
-0.053966 0.133315 -0.052909
-0.056555 0.136647 -0.040461
-0.046941 0.136548 -0.043837
-0.056555 0.136647 -0.040461
-0.049560 0.138970 -0.031335
-0.046941 0.136548 -0.043837
-0.056555 0.136647 -0.040461
-0.059035 0.137558 -0.028201
-0.049560 0.138970 -0.031335
-0.046941 0.136548 -0.043837
-0.049560 0.138970 -0.031335
-0.039962 0.139446 -0.034683
-0.059035 0.137558 -0.028201
-0.052159 0.138996 -0.018868
-0.049560 0.138970 -0.031335
-0.052159 0.138996 -0.018868
-0.042599 0.140970 -0.022152
-0.049560 0.138970 -0.031335
-0.052159 0.138996 -0.018868
-0.045378 0.140057 -0.009373
-0.042599 0.140970 -0.022152
-0.049560 0.138970 -0.031335
-0.042599 0.140970 -0.022152
-0.039962 0.139446 -0.034683
-0.059035 0.137558 -0.028201
-0.061731 0.136040 -0.015565
-0.052159 0.138996 -0.018868
-0.061731 0.136040 -0.015565
-0.055013 0.136452 -0.005960
-0.052159 0.138996 -0.018868
-0.061731 0.136040 -0.015565
-0.064590 0.131793 -0.002650
-0.055013 0.136452 -0.005960
-0.052159 0.138996 -0.018868
-0.055013 0.136452 -0.005960
-0.045378 0.140057 -0.009373
-0.039962 0.139446 -0.034683
-0.042599 0.140970 -0.022152
-0.033021 0.142008 -0.025464
-0.042599 0.140970 -0.022152
-0.035730 0.142636 -0.012808
-0.033021 0.142008 -0.025464
-0.042599 0.140970 -0.022152
-0.045378 0.140057 -0.009373
-0.035730 0.142636 -0.012808
-0.033021 0.142008 -0.025464
-0.035730 0.142636 -0.012808
-0.026109 0.144235 -0.016196
-0.013284 -0.097981 -0.084558
-0.023313 -0.112878 -0.076018
-0.028715 -0.098298 -0.089935
-0.023313 -0.112878 -0.076018
-0.038726 -0.112383 -0.081424
-0.028715 -0.098298 -0.089935
-0.023313 -0.112878 -0.076018
-0.033959 -0.124176 -0.066408
-0.038726 -0.112383 -0.081424
-0.028715 -0.098298 -0.089935
-0.038726 -0.112383 -0.081424
-0.044128 -0.098448 -0.095340
-0.033959 -0.124176 -0.066408
-0.049294 -0.122887 -0.071948
-0.038726 -0.112383 -0.081424
-0.049294 -0.122887 -0.071948
-0.054111 -0.111730 -0.086878
-0.038726 -0.112383 -0.081424
-0.049294 -0.122887 -0.071948
-0.064592 -0.121459 -0.077554
-0.054111 -0.111730 -0.086878
-0.038726 -0.112383 -0.081424
-0.054111 -0.111730 -0.086878
-0.044128 -0.098448 -0.095340
-0.033959 -0.124176 -0.066408
-0.044894 -0.131646 -0.056295
-0.049294 -0.122887 -0.071948
-0.044894 -0.131646 -0.056295
-0.060098 -0.129636 -0.062065
-0.049294 -0.122887 -0.071948
-0.044894 -0.131646 -0.056295
-0.055803 -0.135387 -0.046229
-0.060098 -0.129636 -0.062065
-0.049294 -0.122887 -0.071948
-0.060098 -0.129636 -0.062065
-0.064592 -0.121459 -0.077554
-0.044128 -0.098448 -0.095340
-0.054111 -0.111730 -0.086878
-0.059524 -0.098432 -0.100777
-0.054111 -0.111730 -0.086878
-0.069467 -0.110922 -0.092384
-0.059524 -0.098432 -0.100777
-0.054111 -0.111730 -0.086878
-0.064592 -0.121459 -0.077554
-0.069467 -0.110922 -0.092384
-0.059524 -0.098432 -0.100777
-0.069467 -0.110922 -0.092384
-0.074899 -0.098252 -0.106249
0.048984 0.030087 -0.084843
0.036984 0.029817 -0.089909
0.047702 0.044954 -0.082622
0.036984 0.029817 -0.089909
0.035720 0.044386 -0.087721
0.047702 0.044954 -0.082622
0.036984 0.029817 -0.089909
0.024984 0.029540 -0.094976
0.035720 0.044386 -0.087721
0.047702 0.044954 -0.082622
0.035720 0.044386 -0.087721
0.045884 0.059596 -0.079474
0.024984 0.029540 -0.094976
0.023728 0.043919 -0.092802
0.035720 0.044386 -0.087721
0.023728 0.043919 -0.092802
0.033911 0.058896 -0.084587
0.035720 0.044386 -0.087721
0.023728 0.043919 -0.092802
0.021939 0.058186 -0.089702
0.033911 0.058896 -0.084587
0.035720 0.044386 -0.087721
0.033911 0.058896 -0.084587
0.045884 0.059596 -0.079474
0.024984 0.029540 -0.094976
0.012984 0.029256 -0.100044
0.023728 0.043919 -0.092802
0.012984 0.029256 -0.100044
0.011742 0.043395 -0.097892
0.023728 0.043919 -0.092802
0.012984 0.029256 -0.100044
0.000985 0.028964 -0.105112
0.011742 0.043395 -0.097892
0.023728 0.043919 -0.092802
0.011742 0.043395 -0.097892
0.021939 0.058186 -0.089702
0.045884 0.059596 -0.079474
0.033911 0.058896 -0.084587
0.043508 0.073914 -0.075359
0.033911 0.058896 -0.084587
0.031543 0.073078 -0.080486
0.043508 0.073914 -0.075359
0.033911 0.058896 -0.084587
0.021939 0.058186 -0.089702
0.031543 0.073078 -0.080486
0.043508 0.073914 -0.075359
0.031543 0.073078 -0.080486
0.040543 0.087784 -0.070223
-0.024853 0.083205 -0.097924
-0.008515 0.084413 -0.090980
-0.017602 0.070704 -0.101092
-0.008515 0.084413 -0.090980
-0.001226 0.071538 -0.094214
-0.017602 0.070704 -0.101092
-0.008515 0.084413 -0.090980
0.007830 0.085579 -0.084048
-0.001226 0.071538 -0.094214
-0.017602 0.070704 -0.101092
-0.001226 0.071538 -0.094214
-0.010863 0.057305 -0.103373
0.007830 0.085579 -0.084048
0.015156 0.072330 -0.087345
-0.001226 0.071538 -0.094214
0.015156 0.072330 -0.087345
0.005536 0.057768 -0.096534
-0.001226 0.071538 -0.094214
0.015156 0.072330 -0.087345
0.021939 0.058186 -0.089702
0.005536 0.057768 -0.096534
-0.001226 0.071538 -0.094214
0.005536 0.057768 -0.096534
-0.010863 0.057305 -0.103373
0.007830 0.085579 -0.084048
0.024183 0.086703 -0.077130
0.015156 0.072330 -0.087345
0.024183 0.086703 -0.077130
0.031543 0.073078 -0.080486
0.015156 0.072330 -0.087345
0.024183 0.086703 -0.077130
0.040543 0.087784 -0.070223
0.031543 0.073078 -0.080486
0.015156 0.072330 -0.087345
0.031543 0.073078 -0.080486
0.021939 0.058186 -0.089702
-0.010863 0.057305 -0.103373
0.005536 0.057768 -0.096534
-0.004665 0.043296 -0.104717
0.005536 0.057768 -0.096534
0.011742 0.043395 -0.097892
-0.004665 0.043296 -0.104717
0.005536 0.057768 -0.096534
0.021939 0.058186 -0.089702
0.011742 0.043395 -0.097892
-0.004665 0.043296 -0.104717
0.011742 0.043395 -0.097892
0.000985 0.028964 -0.105112
-0.064590 0.131793 -0.002650
-0.061731 0.136040 -0.015565
-0.076985 0.128954 -0.009806
-0.061731 0.136040 -0.015565
-0.074251 0.133233 -0.022505
-0.076985 0.128954 -0.009806
-0.061731 0.136040 -0.015565
-0.059035 0.137558 -0.028201
-0.074251 0.133233 -0.022505
-0.076985 0.128954 -0.009806
-0.074251 0.133233 -0.022505
-0.089379 0.126108 -0.016962
-0.059035 0.137558 -0.028201
-0.071674 0.134827 -0.034930
-0.074251 0.133233 -0.022505
-0.071674 0.134827 -0.034930
-0.086770 0.130419 -0.029442
-0.074251 0.133233 -0.022505
-0.071674 0.134827 -0.034930
-0.084302 0.132092 -0.041678
-0.086770 0.130419 -0.029442
-0.074251 0.133233 -0.022505
-0.086770 0.130419 -0.029442
-0.089379 0.126108 -0.016962
-0.059035 0.137558 -0.028201
-0.056555 0.136647 -0.040461
-0.071674 0.134827 -0.034930
-0.056555 0.136647 -0.040461
-0.069309 0.134034 -0.046990
-0.071674 0.134827 -0.034930
-0.056555 0.136647 -0.040461
-0.053966 0.133315 -0.052909
-0.069309 0.134034 -0.046990
-0.071674 0.134827 -0.034930
-0.069309 0.134034 -0.046990
-0.084302 0.132092 -0.041678
-0.089379 0.126108 -0.016962
-0.086770 0.130419 -0.029442
-0.101771 0.123256 -0.024117
-0.086770 0.130419 -0.029442
-0.099288 0.127598 -0.036378
-0.101771 0.123256 -0.024117
-0.086770 0.130419 -0.029442
-0.084302 0.132092 -0.041678
-0.099288 0.127598 -0.036378
-0.101771 0.123256 -0.024117
-0.099288 0.127598 -0.036378
-0.114163 0.120396 -0.031271
0.048984 -0.030088 -0.084843
0.037763 -0.014398 -0.091260
0.049747 -0.015078 -0.086164
0.037763 -0.014398 -0.091260
0.037998 0.000205 -0.091666
0.049747 -0.015078 -0.086164
0.037763 -0.014398 -0.091260
0.025996 0.000403 -0.096729
0.037998 0.000205 -0.091666
0.049747 -0.015078 -0.086164
0.037998 0.000205 -0.091666
0.050000 -0.000000 -0.086602
0.025996 0.000403 -0.096729
0.025745 0.014786 -0.096294
0.037998 0.000205 -0.091666
0.025745 0.014786 -0.096294
0.037749 0.014821 -0.091235
0.037998 0.000205 -0.091666
0.025745 0.014786 -0.096294
0.024984 0.029540 -0.094976
0.037749 0.014821 -0.091235
0.037998 0.000205 -0.091666
0.037749 0.014821 -0.091235
0.050000 -0.000000 -0.086602
0.025996 0.000403 -0.096729
0.013740 0.014745 -0.101353
0.025745 0.014786 -0.096294
0.013740 0.014745 -0.101353
0.012984 0.029256 -0.100044
0.025745 0.014786 -0.096294
0.013740 0.014745 -0.101353
0.000985 0.028964 -0.105112
0.012984 0.029256 -0.100044
0.025745 0.014786 -0.096294
0.012984 0.029256 -0.100044
0.024984 0.029540 -0.094976
0.050000 -0.000000 -0.086602
0.037749 0.014821 -0.091235
0.049747 0.015078 -0.086164
0.037749 0.014821 -0.091235
0.036984 0.029817 -0.089909
0.049747 0.015078 -0.086164
0.037749 0.014821 -0.091235
0.024984 0.029540 -0.094976
0.036984 0.029817 -0.089909
0.049747 0.015078 -0.086164
0.036984 0.029817 -0.089909
0.048984 0.030087 -0.084843
-0.089858 -0.039265 -0.140956
-0.081523 -0.027022 -0.139946
-0.073206 -0.039580 -0.133987
-0.081523 -0.027022 -0.139946
-0.064866 -0.026981 -0.132983
-0.073206 -0.039580 -0.133987
-0.081523 -0.027022 -0.139946
-0.073639 -0.014568 -0.138155
-0.064866 -0.026981 -0.132983
-0.073206 -0.039580 -0.133987
-0.064866 -0.026981 -0.132983
-0.056550 -0.039854 -0.127022
-0.073639 -0.014568 -0.138155
-0.056990 -0.014188 -0.131178
-0.064866 -0.026981 -0.132983
-0.056990 -0.014188 -0.131178
-0.048208 -0.026901 -0.126022
-0.064866 -0.026981 -0.132983
-0.056990 -0.014188 -0.131178
-0.040342 -0.013770 -0.124200
-0.048208 -0.026901 -0.126022
-0.064866 -0.026981 -0.132983
-0.048208 -0.026901 -0.126022
-0.056550 -0.039854 -0.127022
-0.073639 -0.014568 -0.138155
-0.066189 -0.002115 -0.135610
-0.056990 -0.014188 -0.131178
-0.066189 -0.002115 -0.135610
-0.049559 -0.001417 -0.128601
-0.056990 -0.014188 -0.131178
-0.066189 -0.002115 -0.135610
-0.059155 0.010496 -0.132346
-0.049559 -0.001417 -0.128601
-0.056990 -0.014188 -0.131178
-0.049559 -0.001417 -0.128601
-0.040342 -0.013770 -0.124200
-0.056550 -0.039854 -0.127022
-0.048208 -0.026901 -0.126022
-0.039892 -0.040086 -0.120062
-0.048208 -0.026901 -0.126022
-0.031549 -0.026780 -0.119063
-0.039892 -0.040086 -0.120062
-0.048208 -0.026901 -0.126022
-0.040342 -0.013770 -0.124200
-0.031549 -0.026780 -0.119063
-0.039892 -0.040086 -0.120062
-0.031549 -0.026780 -0.119063
-0.023231 -0.040277 -0.113106
-0.074899 -0.098252 -0.106249
-0.077529 -0.084984 -0.116847
-0.060997 -0.086588 -0.109669
-0.077529 -0.084984 -0.116847
-0.064270 -0.071588 -0.119154
-0.060997 -0.086588 -0.109669
-0.077529 -0.084984 -0.116847
-0.080864 -0.070411 -0.126227
-0.064270 -0.071588 -0.119154
-0.060997 -0.086588 -0.109669
-0.064270 -0.071588 -0.119154
-0.047670 -0.072725 -0.112093
-0.080864 -0.070411 -0.126227
-0.068334 -0.055750 -0.127270
-0.064270 -0.071588 -0.119154
-0.068334 -0.055750 -0.127270
-0.051696 -0.056452 -0.120275
-0.064270 -0.071588 -0.119154
-0.068334 -0.055750 -0.127270
-0.056550 -0.039854 -0.127022
-0.051696 -0.056452 -0.120275
-0.064270 -0.071588 -0.119154
-0.051696 -0.056452 -0.120275
-0.047670 -0.072725 -0.112093
-0.080864 -0.070411 -0.126227
-0.084967 -0.055006 -0.134274
-0.068334 -0.055750 -0.127270
-0.084967 -0.055006 -0.134274
-0.073206 -0.039580 -0.133987
-0.068334 -0.055750 -0.127270
-0.084967 -0.055006 -0.134274
-0.089858 -0.039265 -0.140956
-0.073206 -0.039580 -0.133987
-0.068334 -0.055750 -0.127270
-0.073206 -0.039580 -0.133987
-0.056550 -0.039854 -0.127022
-0.047670 -0.072725 -0.112093
-0.051696 -0.056452 -0.120275
-0.035053 -0.057112 -0.113287
-0.051696 -0.056452 -0.120275
-0.039892 -0.040086 -0.120062
-0.035053 -0.057112 -0.113287
-0.051696 -0.056452 -0.120275
-0.056550 -0.039854 -0.127022
-0.039892 -0.040086 -0.120062
-0.035053 -0.057112 -0.113287
-0.039892 -0.040086 -0.120062
-0.023231 -0.040277 -0.113106
-0.120732 -0.121124 -0.083935
-0.109244 -0.118987 -0.089565
-0.104485 -0.124687 -0.074535
-0.109244 -0.118987 -0.089565
-0.092851 -0.122531 -0.080417
-0.104485 -0.124687 -0.074535
-0.109244 -0.118987 -0.089565
-0.097666 -0.114515 -0.095350
-0.092851 -0.122531 -0.080417
-0.104485 -0.124687 -0.074535
-0.092851 -0.122531 -0.080417
-0.088248 -0.128252 -0.065117
-0.097666 -0.114515 -0.095350
-0.081124 -0.117982 -0.086461
-0.092851 -0.122531 -0.080417
-0.081124 -0.117982 -0.086461
-0.076469 -0.126081 -0.071250
-0.092851 -0.122531 -0.080417
-0.081124 -0.117982 -0.086461
-0.064592 -0.121459 -0.077554
-0.076469 -0.126081 -0.071250
-0.092851 -0.122531 -0.080417
-0.076469 -0.126081 -0.071250
-0.088248 -0.128252 -0.065117
-0.097666 -0.114515 -0.095350
-0.086160 -0.107596 -0.101012
-0.081124 -0.117982 -0.086461
-0.086160 -0.107596 -0.101012
-0.069467 -0.110922 -0.092384
-0.081124 -0.117982 -0.086461
-0.086160 -0.107596 -0.101012
-0.074899 -0.098252 -0.106249
-0.069467 -0.110922 -0.092384
-0.081124 -0.117982 -0.086461
-0.069467 -0.110922 -0.092384
-0.064592 -0.121459 -0.077554
-0.088248 -0.128252 -0.065117
-0.076469 -0.126081 -0.071250
-0.072020 -0.131818 -0.055682
-0.076469 -0.126081 -0.071250
-0.060098 -0.129636 -0.062065
-0.072020 -0.131818 -0.055682
-0.076469 -0.126081 -0.071250
-0.064592 -0.121459 -0.077554
-0.060098 -0.129636 -0.062065
-0.072020 -0.131818 -0.055682
-0.060098 -0.129636 -0.062065
-0.055803 -0.135387 -0.046229
-0.074125 0.061351 -0.127524
-0.072419 0.074077 -0.121114
-0.061677 0.066683 -0.120349
-0.072419 0.074077 -0.121114
-0.060192 0.079444 -0.113556
-0.061677 0.066683 -0.120349
-0.072419 0.074077 -0.121114
-0.071235 0.086092 -0.113799
-0.060192 0.079444 -0.113556
-0.061677 0.066683 -0.120349
-0.060192 0.079444 -0.113556
-0.049314 0.072111 -0.113027
-0.071235 0.086092 -0.113799
-0.059227 0.091388 -0.105863
-0.060192 0.079444 -0.113556
-0.059227 0.091388 -0.105863
-0.048053 0.084869 -0.105846
-0.060192 0.079444 -0.113556
-0.059227 0.091388 -0.105863
-0.047307 0.096703 -0.097774
-0.048053 0.084869 -0.105846
-0.060192 0.079444 -0.113556
-0.048053 0.084869 -0.105846
-0.049314 0.072111 -0.113027
-0.071235 0.086092 -0.113799
-0.070530 0.097126 -0.105655
-0.059227 0.091388 -0.105863
-0.070530 0.097126 -0.105655
-0.058730 0.102251 -0.097359
-0.059227 0.091388 -0.105863
-0.070530 0.097126 -0.105655
-0.070239 0.106947 -0.096794
-0.058730 0.102251 -0.097359
-0.059227 0.091388 -0.105863
-0.058730 0.102251 -0.097359
-0.047307 0.096703 -0.097774
-0.049314 0.072111 -0.113027
-0.048053 0.084869 -0.105846
-0.037039 0.077623 -0.105553
-0.048053 0.084869 -0.105846
-0.036004 0.090338 -0.097980
-0.037039 0.077623 -0.105553
-0.048053 0.084869 -0.105846
-0.047307 0.096703 -0.097774
-0.036004 0.090338 -0.097980
-0.037039 0.077623 -0.105553
-0.036004 0.090338 -0.097980
-0.024853 0.083205 -0.097924
-0.235088 -0.002298 -0.206861
-0.234074 -0.017443 -0.205266
-0.245636 -0.010766 -0.210870
-0.234074 -0.017443 -0.205266
-0.245120 -0.025844 -0.208413
-0.245636 -0.010766 -0.210870
-0.234074 -0.017443 -0.205266
-0.233980 -0.032978 -0.202078
-0.245120 -0.025844 -0.208413
-0.245636 -0.010766 -0.210870
-0.245120 -0.025844 -0.208413
-0.256456 -0.019022 -0.214408
-0.233980 -0.032978 -0.202078
-0.245548 -0.040900 -0.204322
-0.245120 -0.025844 -0.208413
-0.245548 -0.040900 -0.204322
-0.256444 -0.033800 -0.211079
-0.245120 -0.025844 -0.208413
-0.245548 -0.040900 -0.204322
-0.257372 -0.048123 -0.206121
-0.256444 -0.033800 -0.211079
-0.245120 -0.025844 -0.208413
-0.256444 -0.033800 -0.211079
-0.256456 -0.019022 -0.214408
-0.233980 -0.032978 -0.202078
-0.234872 -0.048164 -0.197184
-0.245548 -0.040900 -0.204322
-0.234872 -0.048164 -0.197184
-0.246936 -0.055151 -0.198567
-0.245548 -0.040900 -0.204322
-0.234872 -0.048164 -0.197184
-0.236725 -0.062177 -0.190624
-0.246936 -0.055151 -0.198567
-0.245548 -0.040900 -0.204322
-0.246936 -0.055151 -0.198567
-0.257372 -0.048123 -0.206121
-0.256456 -0.019022 -0.214408
-0.256444 -0.033800 -0.211079
-0.267547 -0.026934 -0.217476
-0.256444 -0.033800 -0.211079
-0.268029 -0.041170 -0.213292
-0.267547 -0.026934 -0.217476
-0.256444 -0.033800 -0.211079
-0.257372 -0.048123 -0.206121
-0.268029 -0.041170 -0.213292
-0.267547 -0.026934 -0.217476
-0.268029 -0.041170 -0.213292
-0.278899 -0.034363 -0.220094
-0.274870 0.000327 -0.223665
-0.264922 -0.000283 -0.219468
-0.275397 -0.008173 -0.223603
-0.264922 -0.000283 -0.219468
-0.265474 -0.009007 -0.219363
-0.275397 -0.008173 -0.223603
-0.264922 -0.000283 -0.219468
-0.254975 -0.000924 -0.215269
-0.265474 -0.009007 -0.219363
-0.275397 -0.008173 -0.223603
-0.265474 -0.009007 -0.219363
-0.276230 -0.016887 -0.223012
-0.254975 -0.000924 -0.215269
-0.255554 -0.009871 -0.215119
-0.265474 -0.009007 -0.219363
-0.255554 -0.009871 -0.215119
-0.266341 -0.017939 -0.218713
-0.265474 -0.009007 -0.219363
-0.255554 -0.009871 -0.215119
-0.256456 -0.019022 -0.214408
-0.266341 -0.017939 -0.218713
-0.265474 -0.009007 -0.219363
-0.266341 -0.017939 -0.218713
-0.276230 -0.016887 -0.223012
-0.254975 -0.000924 -0.215269
-0.245031 -0.001596 -0.211066
-0.255554 -0.009871 -0.215119
-0.245031 -0.001596 -0.211066
-0.245636 -0.010766 -0.210870
-0.255554 -0.009871 -0.215119
-0.245031 -0.001596 -0.211066
-0.235088 -0.002298 -0.206861
-0.245636 -0.010766 -0.210870
-0.255554 -0.009871 -0.215119
-0.245636 -0.010766 -0.210870
-0.256456 -0.019022 -0.214408
-0.276230 -0.016887 -0.223012
-0.266341 -0.017939 -0.218713
-0.277393 -0.025672 -0.221850
-0.266341 -0.017939 -0.218713
-0.267547 -0.026934 -0.217476
-0.277393 -0.025672 -0.221850
-0.266341 -0.017939 -0.218713
-0.256456 -0.019022 -0.214408
-0.267547 -0.026934 -0.217476
-0.277393 -0.025672 -0.221850
-0.267547 -0.026934 -0.217476
-0.278899 -0.034363 -0.220094
-0.235088 -0.002298 -0.206861
-0.245031 -0.001596 -0.211066
-0.240542 0.011126 -0.208695
-0.245031 -0.001596 -0.211066
-0.250513 0.011546 -0.212852
-0.240542 0.011126 -0.208695
-0.245031 -0.001596 -0.211066
-0.254975 -0.000924 -0.215269
-0.250513 0.011546 -0.212852
-0.240542 0.011126 -0.208695
-0.250513 0.011546 -0.212852
-0.246696 0.024657 -0.209316
-0.254975 -0.000924 -0.215269
-0.260484 0.011938 -0.217008
-0.250513 0.011546 -0.212852
-0.260484 0.011938 -0.217008
-0.256682 0.024775 -0.213446
-0.250513 0.011546 -0.212852
-0.260484 0.011938 -0.217008
-0.266668 0.024863 -0.217578
-0.256682 0.024775 -0.213446
-0.250513 0.011546 -0.212852
-0.256682 0.024775 -0.213446
-0.246696 0.024657 -0.209316
-0.254975 -0.000924 -0.215269
-0.264922 -0.000283 -0.219468
-0.260484 0.011938 -0.217008
-0.264922 -0.000283 -0.219468
-0.270456 0.012300 -0.221164
-0.260484 0.011938 -0.217008
-0.264922 -0.000283 -0.219468
-0.274870 0.000327 -0.223665
-0.270456 0.012300 -0.221164
-0.260484 0.011938 -0.217008
-0.270456 0.012300 -0.221164
-0.266668 0.024863 -0.217578
-0.246696 0.024657 -0.209316
-0.256682 0.024775 -0.213446
-0.253591 0.037811 -0.208654
-0.256682 0.024775 -0.213446
-0.263577 0.037602 -0.212785
-0.253591 0.037811 -0.208654
-0.256682 0.024775 -0.213446
-0.266668 0.024863 -0.217578
-0.263577 0.037602 -0.212785
-0.253591 0.037811 -0.208654
-0.263577 0.037602 -0.212785
-0.261212 0.050021 -0.206735
-0.321410 0.000001 -0.243301
-0.309775 0.000075 -0.238392
-0.310299 -0.007722 -0.238336
-0.309775 0.000075 -0.238392
-0.298665 -0.007877 -0.233425
-0.310299 -0.007722 -0.238336
-0.309775 0.000075 -0.238392
-0.298140 0.000155 -0.233483
-0.298665 -0.007877 -0.233425
-0.310299 -0.007722 -0.238336
-0.298665 -0.007877 -0.233425
-0.299480 -0.016107 -0.232866
-0.298140 0.000155 -0.233483
-0.287031 -0.008028 -0.228514
-0.298665 -0.007877 -0.233425
-0.287031 -0.008028 -0.228514
-0.287855 -0.016499 -0.227939
-0.298665 -0.007877 -0.233425
-0.287031 -0.008028 -0.228514
-0.276230 -0.016887 -0.223012
-0.287855 -0.016499 -0.227939
-0.298665 -0.007877 -0.233425
-0.287855 -0.016499 -0.227939
-0.299480 -0.016107 -0.232866
-0.298140 0.000155 -0.233483
-0.286505 0.000239 -0.228574
-0.287031 -0.008028 -0.228514
-0.286505 0.000239 -0.228574
-0.275397 -0.008173 -0.223603
-0.287031 -0.008028 -0.228514
-0.286505 0.000239 -0.228574
-0.274870 0.000327 -0.223665
-0.275397 -0.008173 -0.223603
-0.287031 -0.008028 -0.228514
-0.275397 -0.008173 -0.223603
-0.276230 -0.016887 -0.223012
-0.299480 -0.016107 -0.232866
-0.287855 -0.016499 -0.227939
-0.289000 -0.025038 -0.226809
-0.287855 -0.016499 -0.227939
-0.277393 -0.025672 -0.221850
-0.289000 -0.025038 -0.226809
-0.287855 -0.016499 -0.227939
-0.276230 -0.016887 -0.223012
-0.277393 -0.025672 -0.221850
-0.289000 -0.025038 -0.226809
-0.277393 -0.025672 -0.221850
-0.278899 -0.034363 -0.220094
-0.181666 -0.110183 -0.108805
-0.171536 -0.109367 -0.115145
-0.166523 -0.113062 -0.102430
-0.171536 -0.109367 -0.115145
-0.156210 -0.111742 -0.109089
-0.166523 -0.113062 -0.102430
-0.171536 -0.109367 -0.115145
-0.161218 -0.106024 -0.121811
-0.156210 -0.111742 -0.109089
-0.166523 -0.113062 -0.102430
-0.156210 -0.111742 -0.109089
-0.151320 -0.115851 -0.096161
-0.161218 -0.106024 -0.121811
-0.145739 -0.107778 -0.116018
-0.156210 -0.111742 -0.109089
-0.145739 -0.107778 -0.116018
-0.140827 -0.113992 -0.103130
-0.156210 -0.111742 -0.109089
-0.145739 -0.107778 -0.116018
-0.130212 -0.109375 -0.110310
-0.140827 -0.113992 -0.103130
-0.156210 -0.111742 -0.109089
-0.140827 -0.113992 -0.103130
-0.151320 -0.115851 -0.096161
-0.161218 -0.106024 -0.121811
-0.150904 -0.099934 -0.128470
-0.145739 -0.107778 -0.116018
-0.150904 -0.099934 -0.128470
-0.135316 -0.100977 -0.122866
-0.145739 -0.107778 -0.116018
-0.150904 -0.099934 -0.128470
-0.140814 -0.091055 -0.134742
-0.135316 -0.100977 -0.122866
-0.145739 -0.107778 -0.116018
-0.135316 -0.100977 -0.122866
-0.130212 -0.109375 -0.110310
-0.151320 -0.115851 -0.096161
-0.140827 -0.113992 -0.103130
-0.136056 -0.118542 -0.089996
-0.140827 -0.113992 -0.103130
-0.125389 -0.116109 -0.097267
-0.136056 -0.118542 -0.089996
-0.140827 -0.113992 -0.103130
-0.130212 -0.109375 -0.110310
-0.125389 -0.116109 -0.097267
-0.136056 -0.118542 -0.089996
-0.125389 -0.116109 -0.097267
-0.120732 -0.121124 -0.083935
-0.140814 -0.091055 -0.134742
-0.124359 -0.092939 -0.127577
-0.135316 -0.100977 -0.122866
-0.124359 -0.092939 -0.127577
-0.118950 -0.103232 -0.115549
-0.135316 -0.100977 -0.122866
-0.124359 -0.092939 -0.127577
-0.107888 -0.094767 -0.120440
-0.118950 -0.103232 -0.115549
-0.135316 -0.100977 -0.122866
-0.118950 -0.103232 -0.115549
-0.130212 -0.109375 -0.110310
-0.107888 -0.094767 -0.120440
-0.102564 -0.105439 -0.108264
-0.118950 -0.103232 -0.115549
-0.102564 -0.105439 -0.108264
-0.113949 -0.111966 -0.102812
-0.118950 -0.103232 -0.115549
-0.102564 -0.105439 -0.108264
-0.097666 -0.114515 -0.095350
-0.113949 -0.111966 -0.102812
-0.118950 -0.103232 -0.115549
-0.113949 -0.111966 -0.102812
-0.130212 -0.109375 -0.110310
-0.107888 -0.094767 -0.120440
-0.091401 -0.096538 -0.113331
-0.102564 -0.105439 -0.108264
-0.091401 -0.096538 -0.113331
-0.086160 -0.107596 -0.101012
-0.102564 -0.105439 -0.108264
-0.091401 -0.096538 -0.113331
-0.074899 -0.098252 -0.106249
-0.086160 -0.107596 -0.101012
-0.102564 -0.105439 -0.108264
-0.086160 -0.107596 -0.101012
-0.097666 -0.114515 -0.095350
-0.130212 -0.109375 -0.110310
-0.113949 -0.111966 -0.102812
-0.125389 -0.116109 -0.097267
-0.113949 -0.111966 -0.102812
-0.109244 -0.118987 -0.089565
-0.125389 -0.116109 -0.097267
-0.113949 -0.111966 -0.102812
-0.097666 -0.114515 -0.095350
-0.109244 -0.118987 -0.089565
-0.125389 -0.116109 -0.097267
-0.109244 -0.118987 -0.089565
-0.120732 -0.121124 -0.083935
-0.114163 0.120396 -0.031271
-0.115175 0.123809 -0.044188
-0.126553 0.117528 -0.038424
-0.115175 0.123809 -0.044188
-0.127680 0.120969 -0.051142
-0.126553 0.117528 -0.038424
-0.115175 0.123809 -0.044188
-0.116331 0.125065 -0.056858
-0.127680 0.120969 -0.051142
-0.126553 0.117528 -0.038424
-0.127680 0.120969 -0.051142
-0.138941 0.114651 -0.045577
-0.116331 0.125065 -0.056858
-0.128948 0.122290 -0.063613
-0.127680 0.120969 -0.051142
-0.128948 0.122290 -0.063613
-0.140184 0.118121 -0.058092
-0.127680 0.120969 -0.051142
-0.128948 0.122290 -0.063613
-0.141552 0.119512 -0.070391
-0.140184 0.118121 -0.058092
-0.127680 0.120969 -0.051142
-0.140184 0.118121 -0.058092
-0.138941 0.114651 -0.045577
-0.116331 0.125065 -0.056858
-0.117742 0.124396 -0.069085
-0.128948 0.122290 -0.063613
-0.117742 0.124396 -0.069085
-0.130451 0.121721 -0.075682
-0.128948 0.122290 -0.063613
-0.117742 0.124396 -0.069085
-0.119227 0.121978 -0.081185
-0.130451 0.121721 -0.075682
-0.128948 0.122290 -0.063613
-0.130451 0.121721 -0.075682
-0.141552 0.119512 -0.070391
-0.138941 0.114651 -0.045577
-0.140184 0.118121 -0.058092
-0.151328 0.111765 -0.052728
-0.140184 0.118121 -0.058092
-0.152686 0.115263 -0.065042
-0.151328 0.111765 -0.052728
-0.140184 0.118121 -0.058092
-0.141552 0.119512 -0.070391
-0.152686 0.115263 -0.065042
-0.151328 0.111765 -0.052728
-0.152686 0.115263 -0.065042
-0.163713 0.108869 -0.059879
-0.114163 -0.120396 -0.031271
-0.126553 -0.117528 -0.038424
-0.115527 -0.123839 -0.044919
-0.126553 -0.117528 -0.038424
-0.128035 -0.121001 -0.051865
-0.115527 -0.123839 -0.044919
-0.126553 -0.117528 -0.038424
-0.138941 -0.114651 -0.045577
-0.128035 -0.121001 -0.051865
-0.115527 -0.123839 -0.044919
-0.128035 -0.121001 -0.051865
-0.117058 -0.124945 -0.058278
-0.138941 -0.114651 -0.045577
-0.140543 -0.118155 -0.058808
-0.128035 -0.121001 -0.051865
-0.140543 -0.118155 -0.058808
-0.129682 -0.122178 -0.065020
-0.128035 -0.121001 -0.051865
-0.140543 -0.118155 -0.058808
-0.142293 -0.119407 -0.071785
-0.129682 -0.122178 -0.065020
-0.128035 -0.121001 -0.051865
-0.129682 -0.122178 -0.065020
-0.117058 -0.124945 -0.058278
-0.138941 -0.114651 -0.045577
-0.151328 -0.111765 -0.052728
-0.140543 -0.118155 -0.058808
-0.151328 -0.111765 -0.052728
-0.153050 -0.115301 -0.065751
-0.140543 -0.118155 -0.058808
-0.151328 -0.111765 -0.052728
-0.163713 -0.108869 -0.059879
-0.153050 -0.115301 -0.065751
-0.140543 -0.118155 -0.058808
-0.153050 -0.115301 -0.065751
-0.142293 -0.119407 -0.071785
-0.117058 -0.124945 -0.058278
-0.129682 -0.122178 -0.065020
-0.118870 -0.123984 -0.071149
-0.129682 -0.122178 -0.065020
-0.131593 -0.121324 -0.077721
-0.118870 -0.123984 -0.071149
-0.129682 -0.122178 -0.065020
-0.142293 -0.119407 -0.071785
-0.131593 -0.121324 -0.077721
-0.118870 -0.123984 -0.071149
-0.131593 -0.121324 -0.077721
-0.120732 -0.121124 -0.083935
-0.055803 -0.135387 -0.046229
-0.070583 -0.134574 -0.042161
-0.072020 -0.131818 -0.055682
-0.070583 -0.134574 -0.042161
-0.086669 -0.131046 -0.051841
-0.072020 -0.131818 -0.055682
-0.070583 -0.134574 -0.042161
-0.085158 -0.131834 -0.038448
-0.086669 -0.131046 -0.051841
-0.072020 -0.131818 -0.055682
-0.086669 -0.131046 -0.051841
-0.088248 -0.128252 -0.065117
-0.085158 -0.131834 -0.038448
-0.101102 -0.128393 -0.048372
-0.086669 -0.131046 -0.051841
-0.101102 -0.128393 -0.048372
-0.102765 -0.127516 -0.061503
-0.086669 -0.131046 -0.051841
-0.101102 -0.128393 -0.048372
-0.117058 -0.124945 -0.058278
-0.102765 -0.127516 -0.061503
-0.086669 -0.131046 -0.051841
-0.102765 -0.127516 -0.061503
-0.088248 -0.128252 -0.065117
-0.085158 -0.131834 -0.038448
-0.099726 -0.127136 -0.034745
-0.101102 -0.128393 -0.048372
-0.099726 -0.127136 -0.034745
-0.115527 -0.123839 -0.044919
-0.101102 -0.128393 -0.048372
-0.099726 -0.127136 -0.034745
-0.114163 -0.120396 -0.031271
-0.115527 -0.123839 -0.044919
-0.101102 -0.128393 -0.048372
-0.115527 -0.123839 -0.044919
-0.117058 -0.124945 -0.058278
-0.088248 -0.128252 -0.065117
-0.102765 -0.127516 -0.061503
-0.104485 -0.124687 -0.074535
-0.102765 -0.127516 -0.061503
-0.118870 -0.123984 -0.071149
-0.104485 -0.124687 -0.074535
-0.102765 -0.127516 -0.061503
-0.117058 -0.124945 -0.058278
-0.118870 -0.123984 -0.071149
-0.104485 -0.124687 -0.074535
-0.118870 -0.123984 -0.071149
-0.120732 -0.121124 -0.083935
-0.119227 0.121978 -0.081185
-0.117742 0.124396 -0.069085
-0.102979 0.124920 -0.073999
-0.117742 0.124396 -0.069085
-0.101644 0.127659 -0.061640
-0.102979 0.124920 -0.073999
-0.117742 0.124396 -0.069085
-0.116331 0.125065 -0.056858
-0.101644 0.127659 -0.061640
-0.102979 0.124920 -0.073999
-0.101644 0.127659 -0.061640
-0.086686 0.127793 -0.066892
-0.116331 0.125065 -0.056858
-0.100335 0.128597 -0.049236
-0.101644 0.127659 -0.061640
-0.100335 0.128597 -0.049236
-0.085500 0.130873 -0.054275
-0.101644 0.127659 -0.061640
-0.100335 0.128597 -0.049236
-0.084302 0.132092 -0.041678
-0.085500 0.130873 -0.054275
-0.101644 0.127659 -0.061640
-0.085500 0.130873 -0.054275
-0.086686 0.127793 -0.066892
-0.116331 0.125065 -0.056858
-0.115175 0.123809 -0.044188
-0.100335 0.128597 -0.049236
-0.115175 0.123809 -0.044188
-0.099288 0.127598 -0.036378
-0.100335 0.128597 -0.049236
-0.115175 0.123809 -0.044188
-0.114163 0.120396 -0.031271
-0.099288 0.127598 -0.036378
-0.100335 0.128597 -0.049236
-0.099288 0.127598 -0.036378
-0.084302 0.132092 -0.041678
-0.086686 0.127793 -0.066892
-0.085500 0.130873 -0.054275
-0.070348 0.130593 -0.059862
-0.085500 0.130873 -0.054275
-0.069309 0.134034 -0.046990
-0.070348 0.130593 -0.059862
-0.085500 0.130873 -0.054275
-0.084302 0.132092 -0.041678
-0.069309 0.134034 -0.046990
-0.070348 0.130593 -0.059862
-0.069309 0.134034 -0.046990
-0.053966 0.133315 -0.052909
-0.070239 0.106947 -0.096794
-0.082473 0.113556 -0.092915
-0.065855 0.115201 -0.086370
-0.082473 0.113556 -0.092915
-0.078275 0.120356 -0.082168
-0.065855 0.115201 -0.086370
-0.082473 0.113556 -0.092915
-0.094790 0.118218 -0.088891
-0.078275 0.120356 -0.082168
-0.065855 0.115201 -0.086370
-0.078275 0.120356 -0.082168
-0.061722 0.122387 -0.075511
-0.094790 0.118218 -0.088891
-0.090686 0.123558 -0.077982
-0.078275 0.120356 -0.082168
-0.090686 0.123558 -0.077982
-0.074254 0.126044 -0.071116
-0.078275 0.120356 -0.082168
-0.090686 0.123558 -0.077982
-0.086686 0.127793 -0.066892
-0.074254 0.126044 -0.071116
-0.078275 0.120356 -0.082168
-0.074254 0.126044 -0.071116
-0.061722 0.122387 -0.075511
-0.094790 0.118218 -0.088891
-0.107076 0.120985 -0.084922
-0.090686 0.123558 -0.077982
-0.107076 0.120985 -0.084922
-0.102979 0.124920 -0.073999
-0.090686 0.123558 -0.077982
-0.107076 0.120985 -0.084922
-0.119227 0.121978 -0.081185
-0.102979 0.124920 -0.073999
-0.090686 0.123558 -0.077982
-0.102979 0.124920 -0.073999
-0.086686 0.127793 -0.066892
-0.061722 0.122387 -0.075511
-0.074254 0.126044 -0.071116
-0.057779 0.128436 -0.064323
-0.074254 0.126044 -0.071116
-0.070348 0.130593 -0.059862
-0.057779 0.128436 -0.064323
-0.074254 0.126044 -0.071116
-0.086686 0.127793 -0.066892
-0.070348 0.130593 -0.059862
-0.057779 0.128436 -0.064323
-0.070348 0.130593 -0.059862
-0.053966 0.133315 -0.052909
-0.140814 -0.091055 -0.134742
-0.127197 -0.080999 -0.137816
-0.124359 -0.092939 -0.127577
-0.127197 -0.080999 -0.137816
-0.110654 -0.082390 -0.130804
-0.124359 -0.092939 -0.127577
-0.127197 -0.080999 -0.137816
-0.114077 -0.068730 -0.140030
-0.110654 -0.082390 -0.130804
-0.124359 -0.092939 -0.127577
-0.110654 -0.082390 -0.130804
-0.107888 -0.094767 -0.120440
-0.114077 -0.068730 -0.140030
-0.097475 -0.069603 -0.133120
-0.110654 -0.082390 -0.130804
-0.097475 -0.069603 -0.133120
-0.094098 -0.083718 -0.123815
-0.110654 -0.082390 -0.130804
-0.097475 -0.069603 -0.133120
-0.080864 -0.070411 -0.126227
-0.094098 -0.083718 -0.123815
-0.110654 -0.082390 -0.130804
-0.094098 -0.083718 -0.123815
-0.107888 -0.094767 -0.120440
-0.114077 -0.068730 -0.140030
-0.101599 -0.054651 -0.141132
-0.097475 -0.069603 -0.133120
-0.101599 -0.054651 -0.141132
-0.084967 -0.055006 -0.134274
-0.097475 -0.069603 -0.133120
-0.101599 -0.054651 -0.141132
-0.089858 -0.039265 -0.140956
-0.084967 -0.055006 -0.134274
-0.097475 -0.069603 -0.133120
-0.084967 -0.055006 -0.134274
-0.080864 -0.070411 -0.126227
-0.107888 -0.094767 -0.120440
-0.094098 -0.083718 -0.123815
-0.091401 -0.096538 -0.113331
-0.094098 -0.083718 -0.123815
-0.077529 -0.084984 -0.116847
-0.091401 -0.096538 -0.113331
-0.094098 -0.083718 -0.123815
-0.080864 -0.070411 -0.126227
-0.077529 -0.084984 -0.116847
-0.091401 -0.096538 -0.113331
-0.077529 -0.084984 -0.116847
-0.074899 -0.098252 -0.106249
-0.089858 -0.039265 -0.140956
-0.095494 -0.027526 -0.145706
-0.081523 -0.027022 -0.139946
-0.095494 -0.027526 -0.145706
-0.087586 -0.015356 -0.143955
-0.081523 -0.027022 -0.139946
-0.095494 -0.027526 -0.145706
-0.101534 -0.016096 -0.149753
-0.087586 -0.015356 -0.143955
-0.081523 -0.027022 -0.139946
-0.087586 -0.015356 -0.143955
-0.073639 -0.014568 -0.138155
-0.101534 -0.016096 -0.149753
-0.094024 -0.004166 -0.147315
-0.087586 -0.015356 -0.143955
-0.094024 -0.004166 -0.147315
-0.080105 -0.003163 -0.141465
-0.087586 -0.015356 -0.143955
-0.094024 -0.004166 -0.147315
-0.086912 0.007831 -0.144186
-0.080105 -0.003163 -0.141465
-0.087586 -0.015356 -0.143955
-0.080105 -0.003163 -0.141465
-0.073639 -0.014568 -0.138155
-0.101534 -0.016096 -0.149753
-0.107945 -0.005121 -0.153160
-0.094024 -0.004166 -0.147315
-0.107945 -0.005121 -0.153160
-0.100797 0.006578 -0.150094
-0.094024 -0.004166 -0.147315
-0.107945 -0.005121 -0.153160
-0.114686 0.005380 -0.155995
-0.100797 0.006578 -0.150094
-0.094024 -0.004166 -0.147315
-0.100797 0.006578 -0.150094
-0.086912 0.007831 -0.144186
-0.073639 -0.014568 -0.138155
-0.080105 -0.003163 -0.141465
-0.066189 -0.002115 -0.135610
-0.080105 -0.003163 -0.141465
-0.073031 0.009137 -0.138270
-0.066189 -0.002115 -0.135610
-0.080105 -0.003163 -0.141465
-0.086912 0.007831 -0.144186
-0.073031 0.009137 -0.138270
-0.066189 -0.002115 -0.135610
-0.073031 0.009137 -0.138270
-0.059155 0.010496 -0.132346
-0.114686 0.005380 -0.155995
-0.103669 0.018517 -0.150396
-0.100797 0.006578 -0.150094
-0.103669 0.018517 -0.150396
-0.089833 0.020075 -0.144403
-0.100797 0.006578 -0.150094
-0.103669 0.018517 -0.150396
-0.093197 0.032411 -0.143853
-0.089833 0.020075 -0.144403
-0.100797 0.006578 -0.150094
-0.089833 0.020075 -0.144403
-0.086912 0.007831 -0.144186
-0.093197 0.032411 -0.143853
-0.079431 0.034312 -0.137739
-0.089833 0.020075 -0.144403
-0.079431 0.034312 -0.137739
-0.076003 0.021685 -0.138399
-0.089833 0.020075 -0.144403
-0.079431 0.034312 -0.137739
-0.065674 0.036264 -0.131609
-0.076003 0.021685 -0.138399
-0.089833 0.020075 -0.144403
-0.076003 0.021685 -0.138399
-0.086912 0.007831 -0.144186
-0.093197 0.032411 -0.143853
-0.083334 0.046796 -0.136255
-0.079431 0.034312 -0.137739
-0.083334 0.046796 -0.136255
-0.069655 0.049015 -0.129990
-0.079431 0.034312 -0.137739
-0.083334 0.046796 -0.136255
-0.074125 0.061351 -0.127524
-0.069655 0.049015 -0.129990
-0.079431 0.034312 -0.137739
-0.069655 0.049015 -0.129990
-0.065674 0.036264 -0.131609
-0.086912 0.007831 -0.144186
-0.076003 0.021685 -0.138399
-0.073031 0.009137 -0.138270
-0.076003 0.021685 -0.138399
-0.062180 0.023349 -0.132383
-0.073031 0.009137 -0.138270
-0.076003 0.021685 -0.138399
-0.065674 0.036264 -0.131609
-0.062180 0.023349 -0.132383
-0.073031 0.009137 -0.138270
-0.062180 0.023349 -0.132383
-0.059155 0.010496 -0.132346
-0.055803 -0.135387 -0.046229
-0.044894 -0.131646 -0.056295
-0.037498 -0.137380 -0.042215
-0.044894 -0.131646 -0.056295
-0.026388 -0.132135 -0.052629
-0.037498 -0.137380 -0.042215
-0.044894 -0.131646 -0.056295
-0.033959 -0.124176 -0.066408
-0.026388 -0.132135 -0.052629
-0.037498 -0.137380 -0.042215
-0.026388 -0.132135 -0.052629
-0.019045 -0.138792 -0.038455
-0.033959 -0.124176 -0.066408
-0.015370 -0.123007 -0.062883
-0.026388 -0.132135 -0.052629
-0.015370 -0.123007 -0.062883
-0.007777 -0.131942 -0.049143
-0.026388 -0.132135 -0.052629
-0.015370 -0.123007 -0.062883
0.003270 -0.121097 -0.059447
-0.007777 -0.131942 -0.049143
-0.026388 -0.132135 -0.052629
-0.007777 -0.131942 -0.049143
-0.019045 -0.138792 -0.038455
-0.033959 -0.124176 -0.066408
-0.023313 -0.112878 -0.076018
-0.015370 -0.123007 -0.062883
-0.023313 -0.112878 -0.076018
-0.004777 -0.110017 -0.072400
-0.015370 -0.123007 -0.062883
-0.023313 -0.112878 -0.076018
-0.013284 -0.097981 -0.084558
-0.004777 -0.110017 -0.072400
-0.015370 -0.123007 -0.062883
-0.004777 -0.110017 -0.072400
0.003270 -0.121097 -0.059447
-0.019045 -0.138792 -0.038455
-0.007777 -0.131942 -0.049143
-0.000460 -0.139569 -0.034923
-0.007777 -0.131942 -0.049143
0.010918 -0.131028 -0.045803
-0.000460 -0.139569 -0.034923
-0.007777 -0.131942 -0.049143
0.003270 -0.121097 -0.059447
0.010918 -0.131028 -0.045803
-0.000460 -0.139569 -0.034923
0.010918 -0.131028 -0.045803
0.018239 -0.139663 -0.031592
0.040543 -0.087784 -0.070223
0.036357 -0.102973 -0.062973
0.027109 -0.090738 -0.073846
0.036357 -0.102973 -0.062973
0.022687 -0.105556 -0.066187
0.027109 -0.090738 -0.073846
0.036357 -0.102973 -0.062973
0.031278 -0.117026 -0.054176
0.022687 -0.105556 -0.066187
0.027109 -0.090738 -0.073846
0.022687 -0.105556 -0.066187
0.013657 -0.093424 -0.077437
0.031278 -0.117026 -0.054176
0.017271 -0.119270 -0.056805
0.022687 -0.105556 -0.066187
0.017271 -0.119270 -0.056805
0.008785 -0.108416 -0.069000
0.022687 -0.105556 -0.066187
0.017271 -0.119270 -0.056805
0.003270 -0.121097 -0.059447
0.008785 -0.108416 -0.069000
0.022687 -0.105556 -0.066187
0.008785 -0.108416 -0.069000
0.013657 -0.093424 -0.077437
0.031278 -0.117026 -0.054176
0.025247 -0.129474 -0.043728
0.017271 -0.119270 -0.056805
0.025247 -0.129474 -0.043728
0.010918 -0.131028 -0.045803
0.017271 -0.119270 -0.056805
0.025247 -0.129474 -0.043728
0.018239 -0.139663 -0.031592
0.010918 -0.131028 -0.045803
0.017271 -0.119270 -0.056805
0.010918 -0.131028 -0.045803
0.003270 -0.121097 -0.059447
0.013657 -0.093424 -0.077437
0.008785 -0.108416 -0.069000
0.000190 -0.095839 -0.081005
0.008785 -0.108416 -0.069000
-0.004777 -0.110017 -0.072400
0.000190 -0.095839 -0.081005
0.008785 -0.108416 -0.069000
0.003270 -0.121097 -0.059447
-0.004777 -0.110017 -0.072400
0.000190 -0.095839 -0.081005
-0.004777 -0.110017 -0.072400
-0.013284 -0.097981 -0.084558
0.000985 0.028964 -0.105112
0.013740 0.014745 -0.101353
-0.003951 0.011095 -0.109047
0.013740 0.014745 -0.101353
0.008189 -0.002852 -0.104222
-0.003951 0.011095 -0.109047
0.013740 0.014745 -0.101353
0.025996 0.000403 -0.096729
0.008189 -0.002852 -0.104222
-0.003951 0.011095 -0.109047
0.008189 -0.002852 -0.104222
-0.009642 -0.005969 -0.111673
0.025996 0.000403 -0.096729
0.019846 -0.017456 -0.098562
0.008189 -0.002852 -0.104222
0.019846 -0.017456 -0.098562
0.001908 -0.020362 -0.105827
0.008189 -0.002852 -0.104222
0.019846 -0.017456 -0.098562
0.012908 -0.035526 -0.099028
0.001908 -0.020362 -0.105827
0.008189 -0.002852 -0.104222
0.001908 -0.020362 -0.105827
-0.009642 -0.005969 -0.111673
0.025996 0.000403 -0.096729
0.037763 -0.014398 -0.091260
0.019846 -0.017456 -0.098562
0.037763 -0.014398 -0.091260
0.030955 -0.032891 -0.091951
0.019846 -0.017456 -0.098562
0.037763 -0.014398 -0.091260
0.048984 -0.030088 -0.084843
0.030955 -0.032891 -0.091951
0.019846 -0.017456 -0.098562
0.030955 -0.032891 -0.091951
0.012908 -0.035526 -0.099028
-0.009642 -0.005969 -0.111673
0.001908 -0.020362 -0.105827
-0.016051 -0.023111 -0.113058
0.001908 -0.020362 -0.105827
-0.005155 -0.037990 -0.106079
-0.016051 -0.023111 -0.113058
0.001908 -0.020362 -0.105827
0.012908 -0.035526 -0.099028
-0.005155 -0.037990 -0.106079
-0.016051 -0.023111 -0.113058
-0.005155 -0.037990 -0.106079
-0.023231 -0.040277 -0.113106
0.040543 -0.087784 -0.070223
0.025188 -0.075621 -0.081963
0.043508 -0.073914 -0.075358
0.025188 -0.075621 -0.081963
0.027661 -0.061675 -0.086245
0.043508 -0.073914 -0.075358
0.025188 -0.075621 -0.081963
0.009431 -0.063556 -0.093005
0.027661 -0.061675 -0.086245
0.043508 -0.073914 -0.075358
0.027661 -0.061675 -0.086245
0.045884 -0.059596 -0.079474
0.009431 -0.063556 -0.093005
0.011434 -0.049654 -0.096476
0.027661 -0.061675 -0.086245
0.011434 -0.049654 -0.096476
0.029580 -0.047342 -0.089570
0.027661 -0.061675 -0.086245
0.011434 -0.049654 -0.096476
0.012908 -0.035526 -0.099028
0.029580 -0.047342 -0.089570
0.027661 -0.061675 -0.086245
0.029580 -0.047342 -0.089570
0.045884 -0.059596 -0.079474
0.009431 -0.063556 -0.093005
-0.006716 -0.051731 -0.103374
0.011434 -0.049654 -0.096476
-0.006716 -0.051731 -0.103374
-0.005155 -0.037990 -0.106079
0.011434 -0.049654 -0.096476
-0.006716 -0.051731 -0.103374
-0.023231 -0.040277 -0.113106
-0.005155 -0.037990 -0.106079
0.011434 -0.049654 -0.096476
-0.005155 -0.037990 -0.106079
0.012908 -0.035526 -0.099028
0.045884 -0.059596 -0.079474
0.029580 -0.047342 -0.089570
0.047702 -0.044955 -0.082622
0.029580 -0.047342 -0.089570
0.030955 -0.032891 -0.091951
0.047702 -0.044955 -0.082622
0.029580 -0.047342 -0.089570
0.012908 -0.035526 -0.099028
0.030955 -0.032891 -0.091951
0.047702 -0.044955 -0.082622
0.030955 -0.032891 -0.091951
0.048984 -0.030088 -0.084843
-0.013284 -0.097981 -0.084558
-0.014830 -0.084577 -0.093324
0.000190 -0.095839 -0.081005
-0.014830 -0.084577 -0.093324
-0.001468 -0.081846 -0.089576
0.000190 -0.095839 -0.081005
-0.014830 -0.084577 -0.093324
-0.016986 -0.070258 -0.101035
-0.001468 -0.081846 -0.089576
0.000190 -0.095839 -0.081005
-0.001468 -0.081846 -0.089576
0.013657 -0.093424 -0.077437
-0.016986 -0.070258 -0.101035
-0.003762 -0.067022 -0.097047
-0.001468 -0.081846 -0.089576
-0.003762 -0.067022 -0.097047
0.011873 -0.078858 -0.085791
-0.001468 -0.081846 -0.089576
-0.003762 -0.067022 -0.097047
0.009431 -0.063556 -0.093005
0.011873 -0.078858 -0.085791
-0.001468 -0.081846 -0.089576
0.011873 -0.078858 -0.085791
0.013657 -0.093424 -0.077437
-0.016986 -0.070258 -0.101035
-0.019784 -0.055373 -0.107632
-0.003762 -0.067022 -0.097047
-0.019784 -0.055373 -0.107632
-0.006716 -0.051731 -0.103374
-0.003762 -0.067022 -0.097047
-0.019784 -0.055373 -0.107632
-0.023231 -0.040277 -0.113106
-0.006716 -0.051731 -0.103374
-0.003762 -0.067022 -0.097047
-0.006716 -0.051731 -0.103374
0.009431 -0.063556 -0.093005
0.013657 -0.093424 -0.077437
0.011873 -0.078858 -0.085791
0.027109 -0.090738 -0.073846
0.011873 -0.078858 -0.085791
0.025188 -0.075621 -0.081963
0.027109 -0.090738 -0.073846
0.011873 -0.078858 -0.085791
0.009431 -0.063556 -0.093005
0.025188 -0.075621 -0.081963
0.027109 -0.090738 -0.073846
0.025188 -0.075621 -0.081963
0.040543 -0.087784 -0.070223
-0.178653 -0.010252 -0.182708
-0.192108 -0.024840 -0.186528
-0.192741 -0.008090 -0.188782
-0.192108 -0.024840 -0.186528
-0.206076 -0.022263 -0.192811
-0.192741 -0.008090 -0.188782
-0.192108 -0.024840 -0.186528
-0.206306 -0.038725 -0.189061
-0.206076 -0.022263 -0.192811
-0.192741 -0.008090 -0.188782
-0.206076 -0.022263 -0.192811
-0.206843 -0.006043 -0.194831
-0.206306 -0.038725 -0.189061
-0.220129 -0.035801 -0.195594
-0.206076 -0.022263 -0.192811
-0.220129 -0.035801 -0.195594
-0.220065 -0.019797 -0.199056
-0.206076 -0.022263 -0.192811
-0.220129 -0.035801 -0.195594
-0.233980 -0.032978 -0.202078
-0.220065 -0.019797 -0.199056
-0.206076 -0.022263 -0.192811
-0.220065 -0.019797 -0.199056
-0.206843 -0.006043 -0.194831
-0.206306 -0.038725 -0.189061
-0.221211 -0.051347 -0.190370
-0.220129 -0.035801 -0.195594
-0.221211 -0.051347 -0.190370
-0.234872 -0.048164 -0.197184
-0.220129 -0.035801 -0.195594
-0.221211 -0.051347 -0.190370
-0.236725 -0.062177 -0.190624
-0.234872 -0.048164 -0.197184
-0.220129 -0.035801 -0.195594
-0.234872 -0.048164 -0.197184
-0.233980 -0.032978 -0.202078
-0.206843 -0.006043 -0.194831
-0.220065 -0.019797 -0.199056
-0.220959 -0.004112 -0.200857
-0.220065 -0.019797 -0.199056
-0.234074 -0.017443 -0.205266
-0.220959 -0.004112 -0.200857
-0.220065 -0.019797 -0.199056
-0.233980 -0.032978 -0.202078
-0.234074 -0.017443 -0.205266
-0.220959 -0.004112 -0.200857
-0.234074 -0.017443 -0.205266
-0.235088 -0.002298 -0.206861
-0.178956 -0.062900 -0.168206
-0.185652 -0.072386 -0.165075
-0.193418 -0.062901 -0.173776
-0.185652 -0.072386 -0.165075
-0.200103 -0.071930 -0.170665
-0.193418 -0.062901 -0.173776
-0.185652 -0.072386 -0.165075
-0.192700 -0.080605 -0.161337
-0.200103 -0.071930 -0.170665
-0.193418 -0.062901 -0.173776
-0.200103 -0.071930 -0.170665
-0.207867 -0.062780 -0.179368
-0.192700 -0.080605 -0.161337
-0.207116 -0.079690 -0.166986
-0.200103 -0.071930 -0.170665
-0.207116 -0.079690 -0.166986
-0.214536 -0.071356 -0.176285
-0.200103 -0.071930 -0.170665
-0.207116 -0.079690 -0.166986
-0.221509 -0.078665 -0.172677
-0.214536 -0.071356 -0.176285
-0.200103 -0.071930 -0.170665
-0.214536 -0.071356 -0.176285
-0.207867 -0.062780 -0.179368
-0.192700 -0.080605 -0.161337
-0.200012 -0.087388 -0.157140
-0.207116 -0.079690 -0.166986
-0.200012 -0.087388 -0.157140
-0.214370 -0.086029 -0.162890
-0.207116 -0.079690 -0.166986
-0.200012 -0.087388 -0.157140
-0.207493 -0.092638 -0.152650
-0.214370 -0.086029 -0.162890
-0.207116 -0.079690 -0.166986
-0.214370 -0.086029 -0.162890
-0.221509 -0.078665 -0.172677
-0.207867 -0.062780 -0.179368
-0.214536 -0.071356 -0.176285
-0.222304 -0.062538 -0.184983
-0.214536 -0.071356 -0.176285
-0.228950 -0.070666 -0.181939
-0.222304 -0.062538 -0.184983
-0.214536 -0.071356 -0.176285
-0.221509 -0.078665 -0.172677
-0.228950 -0.070666 -0.181939
-0.222304 -0.062538 -0.184983
-0.228950 -0.070666 -0.181939
-0.236725 -0.062177 -0.190624
-0.017171 0.115589 -0.071421
-0.008110 0.122093 -0.061824
-0.002542 0.110218 -0.071468
-0.008110 0.122093 -0.061824
0.006657 0.117301 -0.062111
-0.002542 0.110218 -0.071468
-0.008110 0.122093 -0.061824
0.000805 0.128294 -0.051975
0.006657 0.117301 -0.062111
-0.002542 0.110218 -0.071468
0.006657 0.117301 -0.062111
0.011983 0.103760 -0.071336
0.000805 0.128294 -0.051975
0.016080 0.123362 -0.053142
0.006657 0.117301 -0.062111
0.016080 0.123362 -0.053142
0.021699 0.110454 -0.062874
0.006657 0.117301 -0.062111
0.016080 0.123362 -0.053142
0.031278 0.117026 -0.054176
0.021699 0.110454 -0.062874
0.006657 0.117301 -0.062111
0.021699 0.110454 -0.062874
0.011983 0.103760 -0.071336
0.000805 0.128294 -0.051975
0.009584 0.134161 -0.041890
0.016080 0.123362 -0.053142
0.009584 0.134161 -0.041890
0.025247 0.129474 -0.043728
0.016080 0.123362 -0.053142
0.009584 0.134161 -0.041890
0.018240 0.139663 -0.031592
0.025247 0.129474 -0.043728
0.016080 0.123362 -0.053142
0.025247 0.129474 -0.043728
0.031278 0.117026 -0.054176
0.011983 0.103760 -0.071336
0.021699 0.110454 -0.062874
0.026359 0.096259 -0.070946
0.021699 0.110454 -0.062874
0.036357 0.102973 -0.062973
0.026359 0.096259 -0.070946
0.021699 0.110454 -0.062874
0.031278 0.117026 -0.054176
0.036357 0.102973 -0.062973
0.026359 0.096259 -0.070946
0.036357 0.102973 -0.062973
0.040543 0.087784 -0.070223
-0.024853 0.083205 -0.097924
-0.022584 0.092036 -0.091902
-0.008515 0.084413 -0.090980
-0.022584 0.092036 -0.091902
-0.006278 0.093484 -0.084902
-0.008515 0.084413 -0.090980
-0.022584 0.092036 -0.091902
-0.020560 0.100431 -0.085456
-0.006278 0.093484 -0.084902
-0.008515 0.084413 -0.090980
-0.006278 0.093484 -0.084902
0.007830 0.085579 -0.084048
-0.020560 0.100431 -0.085456
-0.004293 0.102115 -0.078387
-0.006278 0.093484 -0.084902
-0.004293 0.102115 -0.078387
0.010036 0.094892 -0.077916
-0.006278 0.093484 -0.084902
-0.004293 0.102115 -0.078387
0.011983 0.103760 -0.071336
0.010036 0.094892 -0.077916
-0.006278 0.093484 -0.084902
0.010036 0.094892 -0.077916
0.007830 0.085579 -0.084048
-0.020560 0.100431 -0.085456
-0.018763 0.108307 -0.078615
-0.004293 0.102115 -0.078387
-0.018763 0.108307 -0.078615
-0.002542 0.110218 -0.071468
-0.004293 0.102115 -0.078387
-0.018763 0.108307 -0.078615
-0.017171 0.115589 -0.071421
-0.002542 0.110218 -0.071468
-0.004293 0.102115 -0.078387
-0.002542 0.110218 -0.071468
0.011983 0.103760 -0.071336
0.007830 0.085579 -0.084048
0.010036 0.094892 -0.077916
0.024183 0.086703 -0.077130
0.010036 0.094892 -0.077916
0.026359 0.096259 -0.070946
0.024183 0.086703 -0.077130
0.010036 0.094892 -0.077916
0.011983 0.103760 -0.071336
0.026359 0.096259 -0.070946
0.024183 0.086703 -0.077130
0.026359 0.096259 -0.070946
0.040543 0.087784 -0.070223
0.018240 0.139663 -0.031592
0.009584 0.134161 -0.041890
0.000062 0.138582 -0.036702
0.009584 0.134161 -0.041890
-0.008602 0.133468 -0.046986
0.000062 0.138582 -0.036702
0.009584 0.134161 -0.041890
0.000805 0.128294 -0.051975
-0.008602 0.133468 -0.046986
0.000062 0.138582 -0.036702
-0.008602 0.133468 -0.046986
-0.018036 0.137150 -0.041951
0.000805 0.128294 -0.051975
-0.017379 0.127988 -0.057074
-0.008602 0.133468 -0.046986
-0.017379 0.127988 -0.057074
-0.026716 0.132410 -0.052207
-0.008602 0.133468 -0.046986
-0.017379 0.127988 -0.057074
-0.035500 0.127306 -0.062284
-0.026716 0.132410 -0.052207
-0.008602 0.133468 -0.046986
-0.026716 0.132410 -0.052207
-0.018036 0.137150 -0.041951
0.000805 0.128294 -0.051975
-0.008110 0.122093 -0.061824
-0.017379 0.127988 -0.057074
-0.008110 0.122093 -0.061824
-0.026281 0.122168 -0.066945
-0.017379 0.127988 -0.057074
-0.008110 0.122093 -0.061824
-0.017171 0.115589 -0.071421
-0.026281 0.122168 -0.066945
-0.017379 0.127988 -0.057074
-0.026281 0.122168 -0.066945
-0.035500 0.127306 -0.062284
-0.018036 0.137150 -0.041951
-0.026716 0.132410 -0.052207
-0.036047 0.135387 -0.047351
-0.026716 0.132410 -0.052207
-0.044751 0.131006 -0.057565
-0.036047 0.135387 -0.047351
-0.026716 0.132410 -0.052207
-0.035500 0.127306 -0.062284
-0.044751 0.131006 -0.057565
-0.036047 0.135387 -0.047351
-0.044751 0.131006 -0.057565
-0.053966 0.133315 -0.052909
-0.059155 0.010496 -0.132346
-0.054609 0.020189 -0.129596
-0.044039 0.014787 -0.125677
-0.054609 0.020189 -0.129596
-0.039612 0.024802 -0.122723
-0.044039 0.014787 -0.125677
-0.054609 0.020189 -0.129596
-0.050329 0.030153 -0.126386
-0.039612 0.024802 -0.122723
-0.044039 0.014787 -0.125677
-0.039612 0.024802 -0.122723
-0.028975 0.019298 -0.118920
-0.050329 0.030153 -0.126386
-0.035463 0.035055 -0.119284
-0.039612 0.024802 -0.122723
-0.035463 0.035055 -0.119284
-0.024673 0.029624 -0.115747
-0.039612 0.024802 -0.122723
-0.035463 0.035055 -0.119284
-0.020663 0.040150 -0.112068
-0.024673 0.029624 -0.115747
-0.039612 0.024802 -0.122723
-0.024673 0.029624 -0.115747
-0.028975 0.019298 -0.118920
-0.050329 0.030153 -0.126386
-0.046333 0.040300 -0.122683
-0.035463 0.035055 -0.119284
-0.046333 0.040300 -0.122683
-0.031610 0.045452 -0.115333
-0.035463 0.035055 -0.119284
-0.046333 0.040300 -0.122683
-0.042635 0.050532 -0.118464
-0.031610 0.045452 -0.115333
-0.035463 0.035055 -0.119284
-0.031610 0.045452 -0.115333
-0.020663 0.040150 -0.112068
-0.028975 0.019298 -0.118920
-0.024673 0.029624 -0.115747
-0.013965 0.024025 -0.112068
-0.024673 0.029624 -0.115747
-0.009797 0.034647 -0.108663
-0.013965 0.024025 -0.112068
-0.024673 0.029624 -0.115747
-0.020663 0.040150 -0.112068
-0.009797 0.034647 -0.108663
-0.013965 0.024025 -0.112068
-0.009797 0.034647 -0.108663
0.000985 0.028964 -0.105112
-0.024853 0.083205 -0.097924
-0.028994 0.075194 -0.103587
-0.037039 0.077623 -0.105553
-0.028994 0.075194 -0.103587
-0.041316 0.069636 -0.110980
-0.037039 0.077623 -0.105553
-0.028994 0.075194 -0.103587
-0.033337 0.067037 -0.108899
-0.041316 0.069636 -0.110980
-0.037039 0.077623 -0.105553
-0.041316 0.069636 -0.110980
-0.049314 0.072111 -0.113027
-0.033337 0.067037 -0.108899
-0.045794 0.061540 -0.116058
-0.041316 0.069636 -0.110980
-0.045794 0.061540 -0.116058
-0.053725 0.064170 -0.118221
-0.041316 0.069636 -0.110980
-0.045794 0.061540 -0.116058
-0.058335 0.056158 -0.123072
-0.053725 0.064170 -0.118221
-0.041316 0.069636 -0.110980
-0.053725 0.064170 -0.118221
-0.049314 0.072111 -0.113027
-0.033337 0.067037 -0.108899
-0.037884 0.058797 -0.113857
-0.045794 0.061540 -0.116058
-0.037884 0.058797 -0.113857
-0.050473 0.053397 -0.120788
-0.045794 0.061540 -0.116058
-0.037884 0.058797 -0.113857
-0.042635 0.050532 -0.118464
-0.050473 0.053397 -0.120788
-0.045794 0.061540 -0.116058
-0.050473 0.053397 -0.120788
-0.058335 0.056158 -0.123072
-0.049314 0.072111 -0.113027
-0.053725 0.064170 -0.118221
-0.061677 0.066683 -0.120349
-0.053725 0.064170 -0.118221
-0.066220 0.058810 -0.125316
-0.061677 0.066683 -0.120349
-0.053725 0.064170 -0.118221
-0.058335 0.056158 -0.123072
-0.066220 0.058810 -0.125316
-0.061677 0.066683 -0.120349
-0.066220 0.058810 -0.125316
-0.074125 0.061351 -0.127524
-0.042635 0.050532 -0.118464
-0.037884 0.058797 -0.113857
-0.031610 0.045452 -0.115333
-0.037884 0.058797 -0.113857
-0.026735 0.053872 -0.110942
-0.031610 0.045452 -0.115333
-0.037884 0.058797 -0.113857
-0.033337 0.067037 -0.108899
-0.026735 0.053872 -0.110942
-0.031610 0.045452 -0.115333
-0.026735 0.053872 -0.110942
-0.020663 0.040150 -0.112068
-0.033337 0.067037 -0.108899
-0.022065 0.062310 -0.106197
-0.026735 0.053872 -0.110942
-0.022065 0.062310 -0.106197
-0.015661 0.048699 -0.107898
-0.026735 0.053872 -0.110942
-0.022065 0.062310 -0.106197
-0.010863 0.057305 -0.103373
-0.015661 0.048699 -0.107898
-0.026735 0.053872 -0.110942
-0.015661 0.048699 -0.107898
-0.020663 0.040150 -0.112068
-0.033337 0.067037 -0.108899
-0.028994 0.075194 -0.103587
-0.022065 0.062310 -0.106197
-0.028994 0.075194 -0.103587
-0.017602 0.070704 -0.101092
-0.022065 0.062310 -0.106197
-0.028994 0.075194 -0.103587
-0.024853 0.083205 -0.097924
-0.017602 0.070704 -0.101092
-0.022065 0.062310 -0.106197
-0.017602 0.070704 -0.101092
-0.010863 0.057305 -0.103373
-0.020663 0.040150 -0.112068
-0.015661 0.048699 -0.107898
-0.009797 0.034647 -0.108663
-0.015661 0.048699 -0.107898
-0.004665 0.043296 -0.104717
-0.009797 0.034647 -0.108663
-0.015661 0.048699 -0.107898
-0.010863 0.057305 -0.103373
-0.004665 0.043296 -0.104717
-0.009797 0.034647 -0.108663
-0.004665 0.043296 -0.104717
0.000985 0.028964 -0.105112
-0.042635 0.050532 -0.118464
-0.046333 0.040300 -0.122683
-0.050473 0.053397 -0.120788
-0.046333 0.040300 -0.122683
-0.054081 0.043298 -0.125163
-0.050473 0.053397 -0.120788
-0.046333 0.040300 -0.122683
-0.050329 0.030153 -0.126386
-0.054081 0.043298 -0.125163
-0.050473 0.053397 -0.120788
-0.054081 0.043298 -0.125163
-0.058335 0.056158 -0.123072
-0.050329 0.030153 -0.126386
-0.057988 0.033248 -0.129021
-0.054081 0.043298 -0.125163
-0.057988 0.033248 -0.129021
-0.061856 0.046205 -0.127598
-0.054081 0.043298 -0.125163
-0.057988 0.033248 -0.129021
-0.065674 0.036264 -0.131609
-0.061856 0.046205 -0.127598
-0.054081 0.043298 -0.125163
-0.061856 0.046205 -0.127598
-0.058335 0.056158 -0.123072
-0.050329 0.030153 -0.126386
-0.054609 0.020189 -0.129596
-0.057988 0.033248 -0.129021
-0.054609 0.020189 -0.129596
-0.062180 0.023349 -0.132383
-0.057988 0.033248 -0.129021
-0.054609 0.020189 -0.129596
-0.059155 0.010496 -0.132346
-0.062180 0.023349 -0.132383
-0.057988 0.033248 -0.129021
-0.062180 0.023349 -0.132383
-0.065674 0.036264 -0.131609
-0.058335 0.056158 -0.123072
-0.061856 0.046205 -0.127598
-0.066220 0.058810 -0.125316
-0.061856 0.046205 -0.127598
-0.069655 0.049015 -0.129990
-0.066220 0.058810 -0.125316
-0.061856 0.046205 -0.127598
-0.065674 0.036264 -0.131609
-0.069655 0.049015 -0.129990
-0.066220 0.058810 -0.125316
-0.069655 0.049015 -0.129990
-0.074125 0.061351 -0.127524
-0.114686 0.005380 -0.155995
-0.120522 -0.005656 -0.158447
-0.130606 0.001138 -0.162797
-0.120522 -0.005656 -0.158447
-0.136572 -0.009603 -0.165023
-0.130606 0.001138 -0.162797
-0.120522 -0.005656 -0.158447
-0.126716 -0.016721 -0.160277
-0.136572 -0.009603 -0.165023
-0.130606 0.001138 -0.162797
-0.136572 -0.009603 -0.165023
-0.146576 -0.002844 -0.169512
-0.126716 -0.016721 -0.160277
-0.142896 -0.020405 -0.166630
-0.136572 -0.009603 -0.165023
-0.142896 -0.020405 -0.166630
-0.152669 -0.013355 -0.171520
-0.136572 -0.009603 -0.165023
-0.142896 -0.020405 -0.166630
-0.159116 -0.023866 -0.172911
-0.152669 -0.013355 -0.171520
-0.136572 -0.009603 -0.165023
-0.152669 -0.013355 -0.171520
-0.146576 -0.002844 -0.169512
-0.126716 -0.016721 -0.160277
-0.133289 -0.027758 -0.161452
-0.142896 -0.020405 -0.166630
-0.133289 -0.027758 -0.161452
-0.149594 -0.031108 -0.167588
-0.142896 -0.020405 -0.166630
-0.133289 -0.027758 -0.161452
-0.140253 -0.038585 -0.161950
-0.149594 -0.031108 -0.167588
-0.142896 -0.020405 -0.166630
-0.149594 -0.031108 -0.167588
-0.159116 -0.023866 -0.172911
-0.146576 -0.002844 -0.169512
-0.152669 -0.013355 -0.171520
-0.162593 -0.006643 -0.176148
-0.152669 -0.013355 -0.171520
-0.168807 -0.016902 -0.177943
-0.162593 -0.006643 -0.176148
-0.152669 -0.013355 -0.171520
-0.159116 -0.023866 -0.172911
-0.168807 -0.016902 -0.177943
-0.162593 -0.006643 -0.176148
-0.168807 -0.016902 -0.177943
-0.178653 -0.010252 -0.182708
-0.089858 -0.039265 -0.140956
-0.102460 -0.039139 -0.146200
-0.095494 -0.027526 -0.145706
-0.102460 -0.039139 -0.146200
-0.108093 -0.027633 -0.150953
-0.095494 -0.027526 -0.145706
-0.102460 -0.039139 -0.146200
-0.115059 -0.038984 -0.151446
-0.108093 -0.027633 -0.150953
-0.095494 -0.027526 -0.145706
-0.108093 -0.027633 -0.150953
-0.101534 -0.016096 -0.149753
-0.115059 -0.038984 -0.151446
-0.120692 -0.027710 -0.156201
-0.108093 -0.027633 -0.150953
-0.120692 -0.027710 -0.156201
-0.114125 -0.016422 -0.155015
-0.108093 -0.027633 -0.150953
-0.120692 -0.027710 -0.156201
-0.126716 -0.016721 -0.160277
-0.114125 -0.016422 -0.155015
-0.108093 -0.027633 -0.150953
-0.114125 -0.016422 -0.155015
-0.101534 -0.016096 -0.149753
-0.115059 -0.038984 -0.151446
-0.127657 -0.038800 -0.156696
-0.120692 -0.027710 -0.156201
-0.127657 -0.038800 -0.156696
-0.133289 -0.027758 -0.161452
-0.120692 -0.027710 -0.156201
-0.127657 -0.038800 -0.156696
-0.140253 -0.038585 -0.161950
-0.133289 -0.027758 -0.161452
-0.120692 -0.027710 -0.156201
-0.133289 -0.027758 -0.161452
-0.126716 -0.016721 -0.160277
-0.101534 -0.016096 -0.149753
-0.114125 -0.016422 -0.155015
-0.107945 -0.005121 -0.153160
-0.114125 -0.016422 -0.155015
-0.120522 -0.005656 -0.158447
-0.107945 -0.005121 -0.153160
-0.114125 -0.016422 -0.155015
-0.126716 -0.016721 -0.160277
-0.120522 -0.005656 -0.158447
-0.107945 -0.005121 -0.153160
-0.120522 -0.005656 -0.158447
-0.114686 0.005380 -0.155995
-0.140253 -0.038585 -0.161950
-0.127657 -0.038800 -0.156696
-0.139351 -0.053072 -0.156952
-0.127657 -0.038800 -0.156696
-0.126770 -0.053628 -0.151673
-0.139351 -0.053072 -0.156952
-0.127657 -0.038800 -0.156696
-0.115059 -0.038984 -0.151446
-0.126770 -0.053628 -0.151673
-0.139351 -0.053072 -0.156952
-0.126770 -0.053628 -0.151673
-0.139180 -0.066954 -0.150690
-0.115059 -0.038984 -0.151446
-0.114186 -0.054155 -0.146400
-0.126770 -0.053628 -0.151673
-0.114186 -0.054155 -0.146400
-0.126631 -0.067856 -0.145355
-0.126770 -0.053628 -0.151673
-0.114186 -0.054155 -0.146400
-0.114077 -0.068730 -0.140030
-0.126631 -0.067856 -0.145355
-0.126770 -0.053628 -0.151673
-0.126631 -0.067856 -0.145355
-0.139180 -0.066954 -0.150690
-0.115059 -0.038984 -0.151446
-0.102460 -0.039139 -0.146200
-0.114186 -0.054155 -0.146400
-0.102460 -0.039139 -0.146200
-0.101599 -0.054651 -0.141132
-0.114186 -0.054155 -0.146400
-0.102460 -0.039139 -0.146200
-0.089858 -0.039265 -0.140956
-0.101599 -0.054651 -0.141132
-0.114186 -0.054155 -0.146400
-0.101599 -0.054651 -0.141132
-0.114077 -0.068730 -0.140030
-0.139180 -0.066954 -0.150690
-0.126631 -0.067856 -0.145355
-0.139696 -0.079758 -0.143236
-0.126631 -0.067856 -0.145355
-0.127197 -0.080999 -0.137816
-0.139696 -0.079758 -0.143236
-0.126631 -0.067856 -0.145355
-0.114077 -0.068730 -0.140030
-0.127197 -0.080999 -0.137816
-0.139696 -0.079758 -0.143236
-0.127197 -0.080999 -0.137816
-0.140814 -0.091055 -0.134742
-0.163713 -0.108869 -0.059879
-0.167949 -0.111503 -0.072546
-0.153050 -0.115301 -0.065751
-0.167949 -0.111503 -0.072546
-0.157325 -0.115980 -0.078351
-0.153050 -0.115301 -0.065751
-0.167949 -0.111503 -0.072546
-0.172309 -0.112489 -0.085001
-0.157325 -0.115980 -0.078351
-0.153050 -0.115301 -0.065751
-0.157325 -0.115980 -0.078351
-0.142293 -0.119407 -0.071785
-0.172309 -0.112489 -0.085001
-0.161823 -0.115173 -0.090566
-0.157325 -0.115980 -0.078351
-0.161823 -0.115173 -0.090566
-0.146732 -0.118286 -0.084102
-0.157325 -0.115980 -0.078351
-0.161823 -0.115173 -0.090566
-0.151320 -0.115851 -0.096161
-0.146732 -0.118286 -0.084102
-0.157325 -0.115980 -0.078351
-0.146732 -0.118286 -0.084102
-0.142293 -0.119407 -0.071785
-0.172309 -0.112489 -0.085001
-0.176871 -0.111987 -0.097104
-0.161823 -0.115173 -0.090566
-0.176871 -0.111987 -0.097104
-0.166523 -0.113062 -0.102430
-0.161823 -0.115173 -0.090566
-0.176871 -0.111987 -0.097104
-0.181666 -0.110183 -0.108805
-0.166523 -0.113062 -0.102430
-0.161823 -0.115173 -0.090566
-0.166523 -0.113062 -0.102430
-0.151320 -0.115851 -0.096161
-0.142293 -0.119407 -0.071785
-0.146732 -0.118286 -0.084102
-0.131593 -0.121324 -0.077721
-0.146732 -0.118286 -0.084102
-0.136056 -0.118542 -0.089996
-0.131593 -0.121324 -0.077721
-0.146732 -0.118286 -0.084102
-0.151320 -0.115851 -0.096161
-0.136056 -0.118542 -0.089996
-0.131593 -0.121324 -0.077721
-0.136056 -0.118542 -0.089996
-0.120732 -0.121124 -0.083935
-0.181666 -0.110183 -0.108805
-0.176871 -0.111987 -0.097104
-0.189544 -0.109246 -0.103744
-0.176871 -0.111987 -0.097104
-0.184901 -0.109660 -0.091781
-0.189544 -0.109246 -0.103744
-0.176871 -0.111987 -0.097104
-0.172309 -0.112489 -0.085001
-0.184901 -0.109660 -0.091781
-0.189544 -0.109246 -0.103744
-0.184901 -0.109660 -0.091781
-0.197476 -0.106829 -0.098590
-0.172309 -0.112489 -0.085001
-0.180436 -0.108621 -0.079514
-0.184901 -0.109660 -0.091781
-0.180436 -0.108621 -0.079514
-0.192922 -0.105726 -0.086477
-0.184901 -0.109660 -0.091781
-0.180436 -0.108621 -0.079514
-0.188477 -0.103044 -0.074176
-0.192922 -0.105726 -0.086477
-0.184901 -0.109660 -0.091781
-0.192922 -0.105726 -0.086477
-0.197476 -0.106829 -0.098590
-0.172309 -0.112489 -0.085001
-0.167949 -0.111503 -0.072546
-0.180436 -0.108621 -0.079514
-0.167949 -0.111503 -0.072546
-0.176096 -0.105962 -0.067028
-0.180436 -0.108621 -0.079514
-0.167949 -0.111503 -0.072546
-0.163713 -0.108869 -0.059879
-0.176096 -0.105962 -0.067028
-0.180436 -0.108621 -0.079514
-0.176096 -0.105962 -0.067028
-0.188477 -0.103044 -0.074176
-0.197476 -0.106829 -0.098590
-0.192922 -0.105726 -0.086477
-0.205406 -0.102820 -0.093440
-0.192922 -0.105726 -0.086477
-0.200856 -0.100112 -0.081323
-0.205406 -0.102820 -0.093440
-0.192922 -0.105726 -0.086477
-0.188477 -0.103044 -0.074176
-0.200856 -0.100112 -0.081323
-0.205406 -0.102820 -0.093440
-0.200856 -0.100112 -0.081323
-0.213232 -0.097167 -0.088469
-0.015000 -0.143091 0.025981
-0.027399 -0.140274 0.018822
-0.024733 -0.143993 0.007117
-0.027399 -0.140274 0.018822
-0.037228 -0.141201 0.000127
-0.024733 -0.143993 0.007117
-0.027399 -0.140274 0.018822
-0.039797 -0.137453 0.011664
-0.037228 -0.141201 0.000127
-0.024733 -0.143993 0.007117
-0.037228 -0.141201 0.000127
-0.034777 -0.142838 -0.011206
-0.039797 -0.137453 0.011664
-0.049723 -0.138403 -0.006861
-0.037228 -0.141201 0.000127
-0.049723 -0.138403 -0.006861
-0.047368 -0.140096 -0.018029
-0.037228 -0.141201 0.000127
-0.049723 -0.138403 -0.006861
-0.059949 -0.137352 -0.024869
-0.047368 -0.140096 -0.018029
-0.037228 -0.141201 0.000127
-0.047368 -0.140096 -0.018029
-0.034777 -0.142838 -0.011206
-0.039797 -0.137453 0.011664
-0.052194 -0.134626 0.004507
-0.049723 -0.138403 -0.006861
-0.052194 -0.134626 0.004507
-0.062217 -0.135601 -0.013850
-0.049723 -0.138403 -0.006861
-0.052194 -0.134626 0.004507
-0.064590 -0.131793 -0.002650
-0.062217 -0.135601 -0.013850
-0.049723 -0.138403 -0.006861
-0.062217 -0.135601 -0.013850
-0.059949 -0.137352 -0.024869
-0.034777 -0.142838 -0.011206
-0.047368 -0.140096 -0.018029
-0.045208 -0.139908 -0.028861
-0.047368 -0.140096 -0.018029
-0.057881 -0.137242 -0.035540
-0.045208 -0.139908 -0.028861
-0.047368 -0.140096 -0.018029
-0.059949 -0.137352 -0.024869
-0.057881 -0.137242 -0.035540
-0.045208 -0.139908 -0.028861
-0.057881 -0.137242 -0.035540
-0.055803 -0.135387 -0.046229
0.018239 -0.139663 -0.031592
0.010341 -0.146757 -0.017912
-0.000460 -0.139569 -0.034923
0.010341 -0.146757 -0.017912
-0.008540 -0.145171 -0.020929
-0.000460 -0.139569 -0.034923
0.010341 -0.146757 -0.017912
0.001832 -0.149899 -0.003173
-0.008540 -0.145171 -0.020929
-0.000460 -0.139569 -0.034923
-0.008540 -0.145171 -0.020929
-0.019045 -0.138792 -0.038455
0.001832 -0.149899 -0.003173
-0.016520 -0.146617 -0.007108
-0.008540 -0.145171 -0.020929
-0.016520 -0.146617 -0.007108
-0.027030 -0.142823 -0.024625
-0.008540 -0.145171 -0.020929
-0.016520 -0.146617 -0.007108
-0.034777 -0.142838 -0.011206
-0.027030 -0.142823 -0.024625
-0.008540 -0.145171 -0.020929
-0.027030 -0.142823 -0.024625
-0.019045 -0.138792 -0.038455
0.001832 -0.149899 -0.003173
-0.006796 -0.148608 0.011770
-0.016520 -0.146617 -0.007108
-0.006796 -0.148608 0.011770
-0.024733 -0.143993 0.007117
-0.016520 -0.146617 -0.007108
-0.006796 -0.148608 0.011770
-0.015000 -0.143091 0.025981
-0.024733 -0.143993 0.007117
-0.016520 -0.146617 -0.007108
-0.024733 -0.143993 0.007117
-0.034777 -0.142838 -0.011206
-0.019045 -0.138792 -0.038455
-0.027030 -0.142823 -0.024625
-0.037498 -0.137380 -0.042215
-0.027030 -0.142823 -0.024625
-0.045208 -0.139908 -0.028861
-0.037498 -0.137380 -0.042215
-0.027030 -0.142823 -0.024625
-0.034777 -0.142838 -0.011206
-0.045208 -0.139908 -0.028861
-0.037498 -0.137380 -0.042215
-0.045208 -0.139908 -0.028861
-0.055803 -0.135387 -0.046229
-0.178653 -0.010252 -0.182708
-0.177761 -0.023553 -0.180759
-0.192108 -0.024840 -0.186528
-0.177761 -0.023553 -0.180759
-0.191903 -0.037935 -0.183389
-0.192108 -0.024840 -0.186528
-0.177761 -0.023553 -0.180759
-0.177499 -0.037028 -0.177718
-0.191903 -0.037935 -0.183389
-0.192108 -0.024840 -0.186528
-0.191903 -0.037935 -0.183389
-0.206306 -0.038725 -0.189061
-0.177499 -0.037028 -0.177718
-0.192343 -0.050760 -0.179132
-0.191903 -0.037935 -0.183389
-0.192343 -0.050760 -0.179132
-0.206781 -0.051114 -0.184745
-0.191903 -0.037935 -0.183389
-0.192343 -0.050760 -0.179132
-0.207867 -0.062780 -0.179368
-0.206781 -0.051114 -0.184745
-0.191903 -0.037935 -0.183389
-0.206781 -0.051114 -0.184745
-0.206306 -0.038725 -0.189061
-0.177499 -0.037028 -0.177718
-0.177899 -0.050285 -0.173530
-0.192343 -0.050760 -0.179132
-0.177899 -0.050285 -0.173530
-0.193418 -0.062901 -0.173776
-0.192343 -0.050760 -0.179132
-0.177899 -0.050285 -0.173530
-0.178956 -0.062900 -0.168206
-0.193418 -0.062901 -0.173776
-0.192343 -0.050760 -0.179132
-0.193418 -0.062901 -0.173776
-0.207867 -0.062780 -0.179368
-0.206306 -0.038725 -0.189061
-0.206781 -0.051114 -0.184745
-0.221211 -0.051347 -0.190370
-0.206781 -0.051114 -0.184745
-0.222304 -0.062538 -0.184983
-0.221211 -0.051347 -0.190370
-0.206781 -0.051114 -0.184745
-0.207867 -0.062780 -0.179368
-0.222304 -0.062538 -0.184983
-0.221211 -0.051347 -0.190370
-0.222304 -0.062538 -0.184983
-0.236725 -0.062177 -0.190624
-0.140253 -0.038585 -0.161950
-0.149712 -0.045260 -0.163889
-0.149594 -0.031108 -0.167588
-0.149712 -0.045260 -0.163889
-0.158878 -0.037825 -0.169831
-0.149594 -0.031108 -0.167588
-0.149712 -0.045260 -0.163889
-0.159323 -0.051573 -0.165564
-0.158878 -0.037825 -0.169831
-0.149594 -0.031108 -0.167588
-0.158878 -0.037825 -0.169831
-0.159116 -0.023866 -0.172911
-0.159323 -0.051573 -0.165564
-0.168316 -0.044236 -0.171807
-0.158878 -0.037825 -0.169831
-0.168316 -0.044236 -0.171807
-0.168231 -0.030573 -0.175448
-0.158878 -0.037825 -0.169831
-0.168316 -0.044236 -0.171807
-0.177499 -0.037028 -0.177718
-0.168231 -0.030573 -0.175448
-0.158878 -0.037825 -0.169831
-0.168231 -0.030573 -0.175448
-0.159116 -0.023866 -0.172911
-0.159323 -0.051573 -0.165564
-0.169076 -0.057470 -0.166995
-0.168316 -0.044236 -0.171807
-0.169076 -0.057470 -0.166995
-0.177899 -0.050285 -0.173530
-0.168316 -0.044236 -0.171807
-0.169076 -0.057470 -0.166995
-0.178956 -0.062900 -0.168206
-0.177899 -0.050285 -0.173530
-0.168316 -0.044236 -0.171807
-0.177899 -0.050285 -0.173530
-0.177499 -0.037028 -0.177718
-0.159116 -0.023866 -0.172911
-0.168231 -0.030573 -0.175448
-0.168807 -0.016902 -0.177943
-0.168231 -0.030573 -0.175448
-0.177761 -0.023553 -0.180759
-0.168807 -0.016902 -0.177943
-0.168231 -0.030573 -0.175448
-0.177499 -0.037028 -0.177718
-0.177761 -0.023553 -0.180759
-0.168807 -0.016902 -0.177943
-0.177761 -0.023553 -0.180759
-0.178653 -0.010252 -0.182708
-0.178956 -0.062900 -0.168206
-0.169076 -0.057470 -0.166995
-0.169115 -0.070121 -0.160368
-0.169076 -0.057470 -0.166995
-0.159071 -0.064942 -0.159442
-0.169115 -0.070121 -0.160368
-0.169076 -0.057470 -0.166995
-0.159323 -0.051573 -0.165564
-0.159071 -0.064942 -0.159442
-0.169115 -0.070121 -0.160368
-0.159071 -0.064942 -0.159442
-0.159481 -0.077262 -0.152174
-0.159323 -0.051573 -0.165564
-0.149144 -0.059243 -0.158313
-0.159071 -0.064942 -0.159442
-0.149144 -0.059243 -0.158313
-0.149278 -0.072393 -0.151522
-0.159071 -0.064942 -0.159442
-0.149144 -0.059243 -0.158313
-0.139180 -0.066954 -0.150690
-0.149278 -0.072393 -0.151522
-0.159071 -0.064942 -0.159442
-0.149278 -0.072393 -0.151522
-0.159481 -0.077262 -0.152174
-0.159323 -0.051573 -0.165564
-0.149712 -0.045260 -0.163889
-0.149144 -0.059243 -0.158313
-0.149712 -0.045260 -0.163889
-0.139351 -0.053072 -0.156952
-0.149144 -0.059243 -0.158313
-0.149712 -0.045260 -0.163889
-0.140253 -0.038585 -0.161950
-0.139351 -0.053072 -0.156952
-0.149144 -0.059243 -0.158313
-0.139351 -0.053072 -0.156952
-0.139180 -0.066954 -0.150690
-0.159481 -0.077262 -0.152174
-0.149278 -0.072393 -0.151522
-0.150049 -0.084261 -0.143628
-0.149278 -0.072393 -0.151522
-0.139696 -0.079758 -0.143236
-0.150049 -0.084261 -0.143628
-0.149278 -0.072393 -0.151522
-0.139180 -0.066954 -0.150690
-0.139696 -0.079758 -0.143236
-0.150049 -0.084261 -0.143628
-0.139696 -0.079758 -0.143236
-0.140814 -0.091055 -0.134742
-0.327916 0.050466 -0.232032
-0.313512 0.040107 -0.231920
-0.324989 0.038668 -0.237103
-0.313512 0.040107 -0.231920
-0.311393 0.026967 -0.235590
-0.324989 0.038668 -0.237103
-0.313512 0.040107 -0.231920
-0.299810 0.027815 -0.230590
-0.311393 0.026967 -0.235590
-0.324989 0.038668 -0.237103
-0.311393 0.026967 -0.235590
-0.322976 0.026122 -0.240590
-0.299810 0.027815 -0.230590
-0.298542 0.013820 -0.232786
-0.311393 0.026967 -0.235590
-0.298542 0.013820 -0.232786
-0.310164 0.013385 -0.237719
-0.311393 0.026967 -0.235590
-0.298542 0.013820 -0.232786
-0.298140 0.000155 -0.233483
-0.310164 0.013385 -0.237719
-0.311393 0.026967 -0.235590
-0.310164 0.013385 -0.237719
-0.322976 0.026122 -0.240590
-0.299810 0.027815 -0.230590
-0.286924 0.014311 -0.227848
-0.298542 0.013820 -0.232786
-0.286924 0.014311 -0.227848
-0.286505 0.000239 -0.228574
-0.298542 0.013820 -0.232786
-0.286924 0.014311 -0.227848
-0.274870 0.000327 -0.223665
-0.286505 0.000239 -0.228574
-0.298542 0.013820 -0.232786
-0.286505 0.000239 -0.228574
-0.298140 0.000155 -0.233483
-0.322976 0.026122 -0.240590
-0.310164 0.013385 -0.237719
-0.321798 0.013156 -0.242630
-0.310164 0.013385 -0.237719
-0.309775 0.000075 -0.238392
-0.321798 0.013156 -0.242630
-0.310164 0.013385 -0.237719
-0.298140 0.000155 -0.233483
-0.309775 0.000075 -0.238392
-0.321798 0.013156 -0.242630
-0.309775 0.000075 -0.238392
-0.321410 0.000001 -0.243301
-0.327916 0.050466 -0.232032
-0.311273 0.050696 -0.225651
-0.313512 0.040107 -0.231920
-0.311273 0.050696 -0.225651
-0.296873 0.039496 -0.225530
-0.313512 0.040107 -0.231920
-0.311273 0.050696 -0.225651
-0.294606 0.050700 -0.219312
-0.296873 0.039496 -0.225530
-0.313512 0.040107 -0.231920
-0.296873 0.039496 -0.225530
-0.299810 0.027815 -0.230590
-0.294606 0.050700 -0.219312
-0.280227 0.038661 -0.219154
-0.296873 0.039496 -0.225530
-0.280227 0.038661 -0.219154
-0.283236 0.026444 -0.224090
-0.296873 0.039496 -0.225530
-0.280227 0.038661 -0.219154
-0.266668 0.024863 -0.217578
-0.283236 0.026444 -0.224090
-0.296873 0.039496 -0.225530
-0.283236 0.026444 -0.224090
-0.299810 0.027815 -0.230590
-0.294606 0.050700 -0.219312
-0.277917 0.050476 -0.213009
-0.280227 0.038661 -0.219154
-0.277917 0.050476 -0.213009
-0.263577 0.037602 -0.212785
-0.280227 0.038661 -0.219154
-0.277917 0.050476 -0.213009
-0.261212 0.050021 -0.206735
-0.263577 0.037602 -0.212785
-0.280227 0.038661 -0.219154
-0.263577 0.037602 -0.212785
-0.266668 0.024863 -0.217578
-0.299810 0.027815 -0.230590
-0.283236 0.026444 -0.224090
-0.286924 0.014311 -0.227848
-0.283236 0.026444 -0.224090
-0.270456 0.012300 -0.221164
-0.286924 0.014311 -0.227848
-0.283236 0.026444 -0.224090
-0.266668 0.024863 -0.217578
-0.270456 0.012300 -0.221164
-0.286924 0.014311 -0.227848
-0.270456 0.012300 -0.221164
-0.274870 0.000327 -0.223665
-0.205959 0.050280 -0.184769
-0.212197 0.036621 -0.192100
-0.219785 0.050361 -0.190239
-0.212197 0.036621 -0.192100
-0.225999 0.037113 -0.197613
-0.219785 0.050361 -0.190239
-0.212197 0.036621 -0.192100
-0.219175 0.023031 -0.198151
-0.225999 0.037113 -0.197613
-0.219785 0.050361 -0.190239
-0.225999 0.037113 -0.197613
-0.233603 0.050344 -0.195722
-0.219175 0.023031 -0.198151
-0.232935 0.023889 -0.203735
-0.225999 0.037113 -0.197613
-0.232935 0.023889 -0.203735
-0.239797 0.037509 -0.203130
-0.225999 0.037113 -0.197613
-0.232935 0.023889 -0.203735
-0.246696 0.024657 -0.209316
-0.239797 0.037509 -0.203130
-0.225999 0.037113 -0.197613
-0.239797 0.037509 -0.203130
-0.233603 0.050344 -0.195722
-0.219175 0.023031 -0.198151
-0.226834 0.009950 -0.203021
-0.232935 0.023889 -0.203735
-0.226834 0.009950 -0.203021
-0.240542 0.011126 -0.208695
-0.232935 0.023889 -0.203735
-0.226834 0.009950 -0.203021
-0.235088 -0.002298 -0.206861
-0.240542 0.011126 -0.208695
-0.232935 0.023889 -0.203735
-0.240542 0.011126 -0.208695
-0.246696 0.024657 -0.209316
-0.233603 0.050344 -0.195722
-0.239797 0.037509 -0.203130
-0.247412 0.050231 -0.201220
-0.239797 0.037509 -0.203130
-0.253591 0.037811 -0.208654
-0.247412 0.050231 -0.201220
-0.239797 0.037509 -0.203130
-0.246696 0.024657 -0.209316
-0.253591 0.037811 -0.208654
-0.247412 0.050231 -0.201220
-0.253591 0.037811 -0.208654
-0.261212 0.050021 -0.206735
-0.235088 -0.002298 -0.206861
-0.226834 0.009950 -0.203021
-0.220959 -0.004112 -0.200857
-0.226834 0.009950 -0.203021
-0.212632 0.008442 -0.197143
-0.220959 -0.004112 -0.200857
-0.226834 0.009950 -0.203021
-0.219175 0.023031 -0.198151
-0.212632 0.008442 -0.197143
-0.220959 -0.004112 -0.200857
-0.212632 0.008442 -0.197143
-0.206843 -0.006043 -0.194831
-0.219175 0.023031 -0.198151
-0.204905 0.021837 -0.192391
-0.212632 0.008442 -0.197143
-0.204905 0.021837 -0.192391
-0.198439 0.006838 -0.191251
-0.212632 0.008442 -0.197143
-0.204905 0.021837 -0.192391
-0.190641 0.020537 -0.186623
-0.198439 0.006838 -0.191251
-0.212632 0.008442 -0.197143
-0.198439 0.006838 -0.191251
-0.206843 -0.006043 -0.194831
-0.219175 0.023031 -0.198151
-0.212197 0.036621 -0.192100
-0.204905 0.021837 -0.192391
-0.212197 0.036621 -0.192100
-0.197870 0.035800 -0.186441
-0.204905 0.021837 -0.192391
-0.212197 0.036621 -0.192100
-0.205959 0.050280 -0.184769
-0.197870 0.035800 -0.186441
-0.204905 0.021837 -0.192391
-0.197870 0.035800 -0.186441
-0.190641 0.020537 -0.186623
-0.206843 -0.006043 -0.194831
-0.198439 0.006838 -0.191251
-0.192741 -0.008090 -0.188782
-0.198439 0.006838 -0.191251
-0.184256 0.005138 -0.185343
-0.192741 -0.008090 -0.188782
-0.198439 0.006838 -0.191251
-0.190641 0.020537 -0.186623
-0.184256 0.005138 -0.185343
-0.192741 -0.008090 -0.188782
-0.184256 0.005138 -0.185343
-0.178653 -0.010252 -0.182708
-0.143960 0.051962 -0.159228
-0.135972 0.040835 -0.159580
-0.151360 0.035565 -0.167304
-0.135972 0.040835 -0.159580
-0.144015 0.024204 -0.166540
-0.151360 0.035565 -0.167304
-0.135972 0.040835 -0.159580
-0.128431 0.029205 -0.159157
-0.144015 0.024204 -0.166540
-0.151360 0.035565 -0.167304
-0.144015 0.024204 -0.166540
-0.159675 0.019456 -0.173794
-0.128431 0.029205 -0.159157
-0.137103 0.012659 -0.165028
-0.144015 0.024204 -0.166540
-0.137103 0.012659 -0.165028
-0.152930 0.008281 -0.171993
-0.144015 0.024204 -0.166540
-0.137103 0.012659 -0.165028
-0.146576 -0.002844 -0.169512
-0.152930 0.008281 -0.171993
-0.144015 0.024204 -0.166540
-0.152930 0.008281 -0.171993
-0.159675 0.019456 -0.173794
-0.128431 0.029205 -0.159157
-0.121340 0.017312 -0.157954
-0.137103 0.012659 -0.165028
-0.121340 0.017312 -0.157954
-0.130606 0.001138 -0.162797
-0.137103 0.012659 -0.165028
-0.121340 0.017312 -0.157954
-0.114686 0.005380 -0.155995
-0.130606 0.001138 -0.162797
-0.137103 0.012659 -0.165028
-0.130606 0.001138 -0.162797
-0.146576 -0.002844 -0.169512
-0.159675 0.019456 -0.173794
-0.152930 0.008281 -0.171993
-0.168812 0.004182 -0.178860
-0.152930 0.008281 -0.171993
-0.162593 -0.006643 -0.176148
-0.168812 0.004182 -0.178860
-0.152930 0.008281 -0.171993
-0.146576 -0.002844 -0.169512
-0.162593 -0.006643 -0.176148
-0.168812 0.004182 -0.178860
-0.162593 -0.006643 -0.176148
-0.178653 -0.010252 -0.182708
-0.205959 0.050280 -0.184769
-0.190471 0.050806 -0.178365
-0.197870 0.035800 -0.186441
-0.190471 0.050806 -0.178365
-0.182370 0.035791 -0.180056
-0.197870 0.035800 -0.186441
-0.190471 0.050806 -0.178365
-0.174974 0.051261 -0.171973
-0.182370 0.035791 -0.180056
-0.197870 0.035800 -0.186441
-0.182370 0.035791 -0.180056
-0.190641 0.020537 -0.186623
-0.174974 0.051261 -0.171973
-0.166866 0.035713 -0.173677
-0.182370 0.035791 -0.180056
-0.166866 0.035713 -0.173677
-0.175158 0.020030 -0.180208
-0.182370 0.035791 -0.180056
-0.166866 0.035713 -0.173677
-0.159675 0.019456 -0.173794
-0.175158 0.020030 -0.180208
-0.182370 0.035791 -0.180056
-0.175158 0.020030 -0.180208
-0.190641 0.020537 -0.186623
-0.174974 0.051261 -0.171973
-0.159471 0.051647 -0.165595
-0.166866 0.035713 -0.173677
-0.159471 0.051647 -0.165595
-0.151360 0.035565 -0.167304
-0.166866 0.035713 -0.173677
-0.159471 0.051647 -0.165595
-0.143960 0.051962 -0.159228
-0.151360 0.035565 -0.167304
-0.166866 0.035713 -0.173677
-0.151360 0.035565 -0.167304
-0.159675 0.019456 -0.173794
-0.190641 0.020537 -0.186623
-0.175158 0.020030 -0.180208
-0.184256 0.005138 -0.185343
-0.175158 0.020030 -0.180208
-0.168812 0.004182 -0.178860
-0.184256 0.005138 -0.185343
-0.175158 0.020030 -0.180208
-0.159675 0.019456 -0.173794
-0.168812 0.004182 -0.178860
-0.184256 0.005138 -0.185343
-0.168812 0.004182 -0.178860
-0.178653 -0.010252 -0.182708
-0.173992 0.111273 -0.107602
-0.161773 0.110999 -0.110988
-0.173699 0.108409 -0.117746
-0.161773 0.110999 -0.110988
-0.161398 0.106337 -0.121273
-0.173699 0.108409 -0.117746
-0.161773 0.110999 -0.110988
-0.149372 0.108892 -0.114689
-0.161398 0.106337 -0.121273
-0.173699 0.108409 -0.117746
-0.161398 0.106337 -0.121273
-0.173431 0.103785 -0.127846
-0.149372 0.108892 -0.114689
-0.149029 0.102304 -0.124917
-0.161398 0.106337 -0.121273
-0.149029 0.102304 -0.124917
-0.161164 0.099829 -0.131313
-0.161398 0.106337 -0.121273
-0.149029 0.102304 -0.124917
-0.148957 0.093875 -0.134678
-0.161164 0.099829 -0.131313
-0.161398 0.106337 -0.121273
-0.161164 0.099829 -0.131313
-0.173431 0.103785 -0.127846
-0.149372 0.108892 -0.114689
-0.136900 0.104786 -0.118512
-0.149029 0.102304 -0.124917
-0.136900 0.104786 -0.118512
-0.136720 0.096233 -0.128459
-0.149029 0.102304 -0.124917
-0.136900 0.104786 -0.118512
-0.124489 0.098600 -0.122230
-0.136720 0.096233 -0.128459
-0.149029 0.102304 -0.124917
-0.136720 0.096233 -0.128459
-0.148957 0.093875 -0.134678
-0.173431 0.103785 -0.127846
-0.161164 0.099829 -0.131313
-0.173305 0.097360 -0.137699
-0.161164 0.099829 -0.131313
-0.161199 0.091526 -0.140888
-0.173305 0.097360 -0.137699
-0.161164 0.099829 -0.131313
-0.148957 0.093875 -0.134678
-0.161199 0.091526 -0.140888
-0.173305 0.097360 -0.137699
-0.161199 0.091526 -0.140888
-0.173446 0.089186 -0.147090
-0.163713 0.108869 -0.059879
-0.166042 0.112139 -0.072227
-0.176096 0.105962 -0.067028
-0.166042 0.112139 -0.072227
-0.178538 0.109260 -0.079178
-0.176096 0.105962 -0.067028
-0.166042 0.112139 -0.072227
-0.168485 0.113501 -0.084377
-0.178538 0.109260 -0.079178
-0.176096 0.105962 -0.067028
-0.178538 0.109260 -0.079178
-0.188477 0.103044 -0.074176
-0.168485 0.113501 -0.084377
-0.181095 0.110684 -0.091126
-0.178538 0.109260 -0.079178
-0.181095 0.110684 -0.091126
-0.191034 0.106369 -0.086125
-0.178538 0.109260 -0.079178
-0.181095 0.110684 -0.091126
-0.193688 0.107865 -0.097904
-0.191034 0.106369 -0.086125
-0.178538 0.109260 -0.079178
-0.191034 0.106369 -0.086125
-0.188477 0.103044 -0.074176
-0.168485 0.113501 -0.084377
-0.171144 0.113143 -0.096154
-0.181095 0.110684 -0.091126
-0.171144 0.113143 -0.096154
-0.183841 0.110427 -0.102751
-0.181095 0.110684 -0.091126
-0.171144 0.113143 -0.096154
-0.173992 0.111273 -0.107602
-0.183841 0.110427 -0.102751
-0.181095 0.110684 -0.091126
-0.183841 0.110427 -0.102751
-0.193688 0.107865 -0.097904
-0.188477 0.103044 -0.074176
-0.191034 0.106369 -0.086125
-0.200856 0.100112 -0.081323
-0.191034 0.106369 -0.086125
-0.203528 0.103466 -0.093070
-0.200856 0.100112 -0.081323
-0.191034 0.106369 -0.086125
-0.193688 0.107865 -0.097904
-0.203528 0.103466 -0.093070
-0.200856 0.100112 -0.081323
-0.203528 0.103466 -0.093070
-0.213232 0.097167 -0.088469
-0.124489 0.098600 -0.122230
-0.136900 0.104786 -0.118512
-0.122891 0.106647 -0.112458
-0.136900 0.104786 -0.118512
-0.135468 0.111094 -0.108453
-0.122891 0.106647 -0.112458
-0.136900 0.104786 -0.118512
-0.149372 0.108892 -0.114689
-0.135468 0.111094 -0.108453
-0.122891 0.106647 -0.112458
-0.135468 0.111094 -0.108453
-0.121542 0.113253 -0.102254
-0.149372 0.108892 -0.114689
-0.147989 0.113487 -0.104545
-0.135468 0.111094 -0.108453
-0.147989 0.113487 -0.104545
-0.134181 0.115942 -0.098142
-0.135468 0.111094 -0.108453
-0.147989 0.113487 -0.104545
-0.146657 0.116674 -0.094312
-0.134181 0.115942 -0.098142
-0.135468 0.111094 -0.108453
-0.134181 0.115942 -0.098142
-0.121542 0.113253 -0.102254
-0.149372 0.108892 -0.114689
-0.161773 0.110999 -0.110988
-0.147989 0.113487 -0.104545
-0.161773 0.110999 -0.110988
-0.160337 0.113985 -0.100937
-0.147989 0.113487 -0.104545
-0.161773 0.110999 -0.110988
-0.173992 0.111273 -0.107602
-0.160337 0.113985 -0.100937
-0.147989 0.113487 -0.104545
-0.160337 0.113985 -0.100937
-0.146657 0.116674 -0.094312
-0.121542 0.113253 -0.102254
-0.134181 0.115942 -0.098142
-0.120351 0.118362 -0.091779
-0.134181 0.115942 -0.098142
-0.132954 0.119339 -0.087728
-0.120351 0.118362 -0.091779
-0.134181 0.115942 -0.098142
-0.146657 0.116674 -0.094312
-0.132954 0.119339 -0.087728
-0.120351 0.118362 -0.091779
-0.132954 0.119339 -0.087728
-0.119227 0.121978 -0.081185
-0.163713 0.108869 -0.059879
-0.152686 0.115263 -0.065042
-0.166042 0.112139 -0.072227
-0.152686 0.115263 -0.065042
-0.155029 0.116511 -0.077365
-0.166042 0.112139 -0.072227
-0.152686 0.115263 -0.065042
-0.141552 0.119512 -0.070391
-0.155029 0.116511 -0.077365
-0.166042 0.112139 -0.072227
-0.155029 0.116511 -0.077365
-0.168485 0.113501 -0.084377
-0.141552 0.119512 -0.070391
-0.144035 0.118877 -0.082471
-0.155029 0.116511 -0.077365
-0.144035 0.118877 -0.082471
-0.157600 0.116017 -0.089295
-0.155029 0.116511 -0.077365
-0.144035 0.118877 -0.082471
-0.146657 0.116674 -0.094312
-0.157600 0.116017 -0.089295
-0.155029 0.116511 -0.077365
-0.157600 0.116017 -0.089295
-0.168485 0.113501 -0.084377
-0.141552 0.119512 -0.070391
-0.130451 0.121721 -0.075682
-0.144035 0.118877 -0.082471
-0.130451 0.121721 -0.075682
-0.132954 0.119339 -0.087728
-0.144035 0.118877 -0.082471
-0.130451 0.121721 -0.075682
-0.119227 0.121978 -0.081185
-0.132954 0.119339 -0.087728
-0.144035 0.118877 -0.082471
-0.132954 0.119339 -0.087728
-0.146657 0.116674 -0.094312
-0.168485 0.113501 -0.084377
-0.157600 0.116017 -0.089295
-0.171144 0.113143 -0.096154
-0.157600 0.116017 -0.089295
-0.160337 0.113985 -0.100937
-0.171144 0.113143 -0.096154
-0.157600 0.116017 -0.089295
-0.146657 0.116674 -0.094312
-0.160337 0.113985 -0.100937
-0.171144 0.113143 -0.096154
-0.160337 0.113985 -0.100937
-0.173992 0.111273 -0.107602
-0.226171 0.096419 -0.148906
-0.213089 0.096050 -0.148280
-0.220249 0.090045 -0.159376
-0.213089 0.096050 -0.148280
-0.207144 0.087778 -0.158791
-0.220249 0.090045 -0.159376
-0.213089 0.096050 -0.148280
-0.199913 0.094755 -0.147817
-0.207144 0.087778 -0.158791
-0.220249 0.090045 -0.159376
-0.207144 0.087778 -0.158791
-0.214666 0.079932 -0.169260
-0.199913 0.094755 -0.147817
-0.194033 0.084528 -0.158216
-0.207144 0.087778 -0.158791
-0.194033 0.084528 -0.158216
-0.201724 0.075784 -0.168393
-0.207144 0.087778 -0.158791
-0.194033 0.084528 -0.158216
-0.188867 0.070702 -0.167378
-0.201724 0.075784 -0.168393
-0.207144 0.087778 -0.158791
-0.201724 0.075784 -0.168393
-0.214666 0.079932 -0.169260
-0.199913 0.094755 -0.147817
-0.186684 0.092479 -0.147445
-0.194033 0.084528 -0.158216
-0.186684 0.092479 -0.147445
-0.180962 0.080288 -0.157570
-0.194033 0.084528 -0.158216
-0.186684 0.092479 -0.147445
-0.173446 0.089186 -0.147090
-0.180962 0.080288 -0.157570
-0.194033 0.084528 -0.158216
-0.180962 0.080288 -0.157570
-0.188867 0.070702 -0.167378
-0.214666 0.079932 -0.169260
-0.201724 0.075784 -0.168393
-0.209799 0.066419 -0.177905
-0.201724 0.075784 -0.168393
-0.197193 0.060627 -0.176454
-0.209799 0.066419 -0.177905
-0.201724 0.075784 -0.168393
-0.188867 0.070702 -0.167378
-0.197193 0.060627 -0.176454
-0.209799 0.066419 -0.177905
-0.197193 0.060627 -0.176454
-0.205959 0.050280 -0.184769
-0.261212 0.050021 -0.206735
-0.251198 0.064468 -0.194449
-0.247412 0.050231 -0.201220
-0.251198 0.064468 -0.194449
-0.237414 0.065212 -0.188908
-0.247412 0.050231 -0.201220
-0.251198 0.064468 -0.194449
-0.242150 0.077444 -0.180490
-0.237414 0.065212 -0.188908
-0.247412 0.050231 -0.201220
-0.237414 0.065212 -0.188908
-0.233603 0.050344 -0.195722
-0.242150 0.077444 -0.180490
-0.228419 0.078730 -0.174856
-0.237414 0.065212 -0.188908
-0.228419 0.078730 -0.174856
-0.223614 0.065863 -0.183393
-0.237414 0.065212 -0.188908
-0.228419 0.078730 -0.174856
-0.214666 0.079932 -0.169260
-0.223614 0.065863 -0.183393
-0.237414 0.065212 -0.188908
-0.223614 0.065863 -0.183393
-0.233603 0.050344 -0.195722
-0.242150 0.077444 -0.180490
-0.233889 0.088245 -0.165168
-0.228419 0.078730 -0.174856
-0.233889 0.088245 -0.165168
-0.220249 0.090045 -0.159376
-0.228419 0.078730 -0.174856
-0.233889 0.088245 -0.165168
-0.226171 0.096419 -0.148906
-0.220249 0.090045 -0.159376
-0.228419 0.078730 -0.174856
-0.220249 0.090045 -0.159376
-0.214666 0.079932 -0.169260
-0.233603 0.050344 -0.195722
-0.223614 0.065863 -0.183393
-0.219785 0.050361 -0.190239
-0.223614 0.065863 -0.183393
-0.209799 0.066419 -0.177905
-0.219785 0.050361 -0.190239
-0.223614 0.065863 -0.183393
-0.214666 0.079932 -0.169260
-0.209799 0.066419 -0.177905
-0.219785 0.050361 -0.190239
-0.209799 0.066419 -0.177905
-0.205959 0.050280 -0.184769
-0.226171 0.096419 -0.148906
-0.233889 0.088245 -0.165168
-0.244922 0.093832 -0.155645
-0.233889 0.088245 -0.165168
-0.252783 0.086643 -0.171660
-0.244922 0.093832 -0.155645
-0.233889 0.088245 -0.165168
-0.242150 0.077444 -0.180490
-0.252783 0.086643 -0.171660
-0.244922 0.093832 -0.155645
-0.252783 0.086643 -0.171660
-0.263554 0.090958 -0.162592
-0.242150 0.077444 -0.180490
-0.261106 0.076893 -0.186875
-0.252783 0.086643 -0.171660
-0.261106 0.076893 -0.186875
-0.271577 0.084684 -0.178326
-0.252783 0.086643 -0.171660
-0.261106 0.076893 -0.186875
-0.279989 0.075937 -0.193387
-0.271577 0.084684 -0.178326
-0.252783 0.086643 -0.171660
-0.271577 0.084684 -0.178326
-0.263554 0.090958 -0.162592
-0.242150 0.077444 -0.180490
-0.251198 0.064468 -0.194449
-0.261106 0.076893 -0.186875
-0.251198 0.064468 -0.194449
-0.270132 0.064949 -0.200872
-0.261106 0.076893 -0.186875
-0.251198 0.064468 -0.194449
-0.261212 0.050021 -0.206735
-0.270132 0.064949 -0.200872
-0.261106 0.076893 -0.186875
-0.270132 0.064949 -0.200872
-0.279989 0.075937 -0.193387
-0.263554 0.090958 -0.162592
-0.271577 0.084684 -0.178326
-0.282061 0.087827 -0.169755
-0.271577 0.084684 -0.178326
-0.290264 0.082396 -0.185177
-0.282061 0.087827 -0.169755
-0.271577 0.084684 -0.178326
-0.279989 0.075937 -0.193387
-0.290264 0.082396 -0.185177
-0.282061 0.087827 -0.169755
-0.290264 0.082396 -0.185177
-0.300441 0.084473 -0.177138
-0.343466 -0.074478 -0.205099
-0.335142 -0.077604 -0.191057
-0.348507 -0.074736 -0.196368
-0.335142 -0.077604 -0.191057
-0.340309 -0.075391 -0.182107
-0.348507 -0.074736 -0.196368
-0.335142 -0.077604 -0.191057
-0.327184 -0.078673 -0.176380
-0.340309 -0.075391 -0.182107
-0.348507 -0.074736 -0.196368
-0.340309 -0.075391 -0.182107
-0.353368 -0.072037 -0.187949
-0.327184 -0.078673 -0.176380
-0.332088 -0.074134 -0.167907
-0.340309 -0.075391 -0.182107
-0.332088 -0.074134 -0.167907
-0.345033 -0.070395 -0.173946
-0.340309 -0.075391 -0.182107
-0.332088 -0.074134 -0.167907
-0.336781 -0.066545 -0.159800
-0.345033 -0.070395 -0.173946
-0.340309 -0.075391 -0.182107
-0.345033 -0.070395 -0.173946
-0.353368 -0.072037 -0.187949
-0.327184 -0.078673 -0.176380
-0.319580 -0.077228 -0.161090
-0.332088 -0.074134 -0.167907
-0.319580 -0.077228 -0.161090
-0.324452 -0.069744 -0.152682
-0.332088 -0.074134 -0.167907
-0.319580 -0.077228 -0.161090
-0.312115 -0.072903 -0.145559
-0.324452 -0.069744 -0.152682
-0.332088 -0.074134 -0.167907
-0.324452 -0.069744 -0.152682
-0.336781 -0.066545 -0.159800
-0.353368 -0.072037 -0.187949
-0.345033 -0.070395 -0.173946
-0.357714 -0.066895 -0.180420
-0.345033 -0.070395 -0.173946
-0.349101 -0.063300 -0.166913
-0.357714 -0.066895 -0.180420
-0.345033 -0.070395 -0.173946
-0.336781 -0.066545 -0.159800
-0.349101 -0.063300 -0.166913
-0.357714 -0.066895 -0.180420
-0.349101 -0.063300 -0.166913
-0.361410 -0.060000 -0.174019
-0.017171 0.115589 -0.071421
-0.030441 0.113435 -0.077759
-0.026281 0.122168 -0.066945
-0.030441 0.113435 -0.077759
-0.039475 0.119850 -0.073416
-0.026281 0.122168 -0.066945
-0.030441 0.113435 -0.077759
-0.043709 0.111277 -0.084100
-0.039475 0.119850 -0.073416
-0.026281 0.122168 -0.066945
-0.039475 0.119850 -0.073416
-0.035500 0.127306 -0.062284
-0.043709 0.111277 -0.084100
-0.052666 0.117527 -0.079891
-0.039475 0.119850 -0.073416
-0.052666 0.117527 -0.079891
-0.048612 0.124848 -0.068896
-0.039475 0.119850 -0.073416
-0.052666 0.117527 -0.079891
-0.061722 0.122387 -0.075511
-0.048612 0.124848 -0.068896
-0.039475 0.119850 -0.073416
-0.048612 0.124848 -0.068896
-0.035500 0.127306 -0.062284
-0.043709 0.111277 -0.084100
-0.056975 0.109114 -0.090445
-0.052666 0.117527 -0.079891
-0.056975 0.109114 -0.090445
-0.065855 0.115201 -0.086370
-0.052666 0.117527 -0.079891
-0.056975 0.109114 -0.090445
-0.070239 0.106947 -0.096794
-0.065855 0.115201 -0.086370
-0.052666 0.117527 -0.079891
-0.065855 0.115201 -0.086370
-0.061722 0.122387 -0.075511
-0.035500 0.127306 -0.062284
-0.048612 0.124848 -0.068896
-0.044751 0.131006 -0.057565
-0.048612 0.124848 -0.068896
-0.057779 0.128436 -0.064323
-0.044751 0.131006 -0.057565
-0.048612 0.124848 -0.068896
-0.061722 0.122387 -0.075511
-0.057779 0.128436 -0.064323
-0.044751 0.131006 -0.057565
-0.057779 0.128436 -0.064323
-0.053966 0.133315 -0.052909
-0.024853 0.083205 -0.097924
-0.036004 0.090338 -0.097980
-0.022584 0.092036 -0.091902
-0.036004 0.090338 -0.097980
-0.033934 0.098570 -0.091613
-0.022584 0.092036 -0.091902
-0.036004 0.090338 -0.097980
-0.047307 0.096703 -0.097774
-0.033934 0.098570 -0.091613
-0.022584 0.092036 -0.091902
-0.033934 0.098570 -0.091613
-0.020560 0.100431 -0.085456
-0.047307 0.096703 -0.097774
-0.045409 0.104274 -0.091108
-0.033934 0.098570 -0.091613
-0.045409 0.104274 -0.091108
-0.032087 0.106293 -0.084860
-0.033934 0.098570 -0.091613
-0.045409 0.104274 -0.091108
-0.043709 0.111277 -0.084100
-0.032087 0.106293 -0.084860
-0.033934 0.098570 -0.091613
-0.032087 0.106293 -0.084860
-0.020560 0.100431 -0.085456
-0.047307 0.096703 -0.097774
-0.058730 0.102251 -0.097359
-0.045409 0.104274 -0.091108
-0.058730 0.102251 -0.097359
-0.056975 0.109114 -0.090445
-0.045409 0.104274 -0.091108
-0.058730 0.102251 -0.097359
-0.070239 0.106947 -0.096794
-0.056975 0.109114 -0.090445
-0.045409 0.104274 -0.091108
-0.056975 0.109114 -0.090445
-0.043709 0.111277 -0.084100
-0.020560 0.100431 -0.085456
-0.032087 0.106293 -0.084860
-0.018763 0.108307 -0.078615
-0.032087 0.106293 -0.084860
-0.030441 0.113435 -0.077759
-0.018763 0.108307 -0.078615
-0.032087 0.106293 -0.084860
-0.043709 0.111277 -0.084100
-0.030441 0.113435 -0.077759
-0.018763 0.108307 -0.078615
-0.030441 0.113435 -0.077759
-0.017171 0.115589 -0.071421
-0.213232 0.097167 -0.088469
-0.216096 0.101697 -0.104220
-0.225606 0.094206 -0.095613
-0.216096 0.101697 -0.104220
-0.228630 0.098793 -0.111083
-0.225606 0.094206 -0.095613
-0.216096 0.101697 -0.104220
-0.219179 0.102802 -0.119592
-0.228630 0.098793 -0.111083
-0.225606 0.094206 -0.095613
-0.228630 0.098793 -0.111083
-0.237977 0.091229 -0.102755
-0.219179 0.102802 -0.119592
-0.231865 0.100023 -0.126184
-0.228630 0.098793 -0.111083
-0.231865 0.100023 -0.126184
-0.241163 0.095871 -0.117939
-0.228630 0.098793 -0.111083
-0.231865 0.100023 -0.126184
-0.244531 0.097236 -0.132810
-0.241163 0.095871 -0.117939
-0.228630 0.098793 -0.111083
-0.241163 0.095871 -0.117939
-0.237977 0.091229 -0.102755
-0.219179 0.102802 -0.119592
-0.222648 0.100981 -0.134295
-0.231865 0.100023 -0.126184
-0.222648 0.100981 -0.134295
-0.235468 0.098388 -0.140656
-0.231865 0.100023 -0.126184
-0.222648 0.100981 -0.134295
-0.226171 0.096419 -0.148906
-0.235468 0.098388 -0.140656
-0.231865 0.100023 -0.126184
-0.235468 0.098388 -0.140656
-0.244531 0.097236 -0.132810
-0.237977 0.091229 -0.102755
-0.241163 0.095871 -0.117939
-0.250344 0.088234 -0.109895
-0.241163 0.095871 -0.117939
-0.253694 0.092933 -0.124793
-0.250344 0.088234 -0.109895
-0.241163 0.095871 -0.117939
-0.244531 0.097236 -0.132810
-0.253694 0.092933 -0.124793
-0.250344 0.088234 -0.109895
-0.253694 0.092933 -0.124793
-0.262708 0.085218 -0.117033
-0.124489 0.098600 -0.122230
-0.110934 0.100705 -0.115858
-0.111452 0.091591 -0.124325
-0.110934 0.100705 -0.115858
-0.097816 0.093449 -0.118094
-0.111452 0.091591 -0.124325
-0.110934 0.100705 -0.115858
-0.097374 0.102797 -0.109495
-0.097816 0.093449 -0.118094
-0.111452 0.091591 -0.124325
-0.097816 0.093449 -0.118094
-0.098653 0.082936 -0.126010
-0.097374 0.102797 -0.109495
-0.084175 0.095294 -0.111871
-0.097816 0.093449 -0.118094
-0.084175 0.095294 -0.111871
-0.084946 0.084521 -0.119901
-0.097816 0.093449 -0.118094
-0.084175 0.095294 -0.111871
-0.071235 0.086092 -0.113799
-0.084946 0.084521 -0.119901
-0.097816 0.093449 -0.118094
-0.084946 0.084521 -0.119901
-0.098653 0.082936 -0.126010
-0.097374 0.102797 -0.109495
-0.083809 0.104878 -0.103140
-0.084175 0.095294 -0.111871
-0.083809 0.104878 -0.103140
-0.070530 0.097126 -0.105655
-0.084175 0.095294 -0.111871
-0.083809 0.104878 -0.103140
-0.070239 0.106947 -0.096794
-0.070530 0.097126 -0.105655
-0.084175 0.095294 -0.111871
-0.070530 0.097126 -0.105655
-0.071235 0.086092 -0.113799
-0.098653 0.082936 -0.126010
-0.084946 0.084521 -0.119901
-0.086184 0.072785 -0.127122
-0.084946 0.084521 -0.119901
-0.072419 0.074077 -0.121114
-0.086184 0.072785 -0.127122
-0.084946 0.084521 -0.119901
-0.071235 0.086092 -0.113799
-0.072419 0.074077 -0.121114
-0.086184 0.072785 -0.127122
-0.072419 0.074077 -0.121114
-0.074125 0.061351 -0.127524
-0.119227 0.121978 -0.081185
-0.107076 0.120985 -0.084922
-0.120351 0.118362 -0.091779
-0.107076 0.120985 -0.084922
-0.108169 0.115740 -0.095568
-0.120351 0.118362 -0.091779
-0.107076 0.120985 -0.084922
-0.094790 0.118218 -0.088891
-0.108169 0.115740 -0.095568
-0.120351 0.118362 -0.091779
-0.108169 0.115740 -0.095568
-0.121542 0.113253 -0.102254
-0.094790 0.118218 -0.088891
-0.095951 0.111263 -0.099420
-0.108169 0.115740 -0.095568
-0.095951 0.111263 -0.099420
-0.109424 0.108960 -0.105934
-0.108169 0.115740 -0.095568
-0.095951 0.111263 -0.099420
-0.097374 0.102797 -0.109495
-0.109424 0.108960 -0.105934
-0.108169 0.115740 -0.095568
-0.109424 0.108960 -0.105934
-0.121542 0.113253 -0.102254
-0.094790 0.118218 -0.088891
-0.082473 0.113556 -0.092915
-0.095951 0.111263 -0.099420
-0.082473 0.113556 -0.092915
-0.083809 0.104878 -0.103140
-0.095951 0.111263 -0.099420
-0.082473 0.113556 -0.092915
-0.070239 0.106947 -0.096794
-0.083809 0.104878 -0.103140
-0.095951 0.111263 -0.099420
-0.083809 0.104878 -0.103140
-0.097374 0.102797 -0.109495
-0.121542 0.113253 -0.102254
-0.109424 0.108960 -0.105934
-0.122891 0.106647 -0.112458
-0.109424 0.108960 -0.105934
-0.110934 0.100705 -0.115858
-0.122891 0.106647 -0.112458
-0.109424 0.108960 -0.105934
-0.097374 0.102797 -0.109495
-0.110934 0.100705 -0.115858
-0.122891 0.106647 -0.112458
-0.110934 0.100705 -0.115858
-0.124489 0.098600 -0.122230
-0.262708 0.085218 -0.117033
-0.271761 0.087989 -0.132718
-0.275067 0.082180 -0.124169
-0.271761 0.087989 -0.132718
-0.284251 0.084995 -0.139622
-0.275067 0.082180 -0.124169
-0.271761 0.087989 -0.132718
-0.280995 0.088604 -0.148089
-0.284251 0.084995 -0.139622
-0.275067 0.082180 -0.124169
-0.284251 0.084995 -0.139622
-0.287422 0.079117 -0.131302
-0.280995 0.088604 -0.148089
-0.293616 0.085694 -0.154754
-0.284251 0.084995 -0.139622
-0.293616 0.085694 -0.154754
-0.296739 0.081974 -0.146518
-0.284251 0.084995 -0.139622
-0.293616 0.085694 -0.154754
-0.306210 0.082780 -0.161466
-0.296739 0.081974 -0.146518
-0.284251 0.084995 -0.139622
-0.296739 0.081974 -0.146518
-0.287422 0.079117 -0.131302
-0.280995 0.088604 -0.148089
-0.290536 0.087325 -0.162928
-0.293616 0.085694 -0.154754
-0.290536 0.087325 -0.162928
-0.303249 0.084556 -0.169434
-0.293616 0.085694 -0.154754
-0.290536 0.087325 -0.162928
-0.300441 0.084473 -0.177138
-0.303249 0.084556 -0.169434
-0.293616 0.085694 -0.154754
-0.303249 0.084556 -0.169434
-0.306210 0.082780 -0.161466
-0.287422 0.079117 -0.131302
-0.296739 0.081974 -0.146518
-0.299772 0.076025 -0.138432
-0.296739 0.081974 -0.146518
-0.309221 0.078928 -0.153411
-0.299772 0.076025 -0.138432
-0.296739 0.081974 -0.146518
-0.306210 0.082780 -0.161466
-0.309221 0.078928 -0.153411
-0.299772 0.076025 -0.138432
-0.309221 0.078928 -0.153411
-0.312115 0.072903 -0.145559
-0.262708 0.085218 -0.117033
-0.253694 0.092933 -0.124793
-0.271761 0.087989 -0.132718
-0.253694 0.092933 -0.124793
-0.262814 0.092999 -0.140362
-0.271761 0.087989 -0.132718
-0.253694 0.092933 -0.124793
-0.244531 0.097236 -0.132810
-0.262814 0.092999 -0.140362
-0.271761 0.087989 -0.132718
-0.262814 0.092999 -0.140362
-0.280995 0.088604 -0.148089
-0.244531 0.097236 -0.132810
-0.253936 0.094887 -0.147885
-0.262814 0.092999 -0.140362
-0.253936 0.094887 -0.147885
-0.272282 0.091192 -0.155328
-0.262814 0.092999 -0.140362
-0.253936 0.094887 -0.147885
-0.263554 0.090958 -0.162592
-0.272282 0.091192 -0.155328
-0.262814 0.092999 -0.140362
-0.272282 0.091192 -0.155328
-0.280995 0.088604 -0.148089
-0.244531 0.097236 -0.132810
-0.235468 0.098388 -0.140656
-0.253936 0.094887 -0.147885
-0.235468 0.098388 -0.140656
-0.244922 0.093832 -0.155645
-0.253936 0.094887 -0.147885
-0.235468 0.098388 -0.140656
-0.226171 0.096419 -0.148906
-0.244922 0.093832 -0.155645
-0.253936 0.094887 -0.147885
-0.244922 0.093832 -0.155645
-0.263554 0.090958 -0.162592
-0.280995 0.088604 -0.148089
-0.272282 0.091192 -0.155328
-0.290536 0.087325 -0.162928
-0.272282 0.091192 -0.155328
-0.282061 0.087827 -0.169755
-0.290536 0.087325 -0.162928
-0.272282 0.091192 -0.155328
-0.263554 0.090958 -0.162592
-0.282061 0.087827 -0.169755
-0.290536 0.087325 -0.162928
-0.282061 0.087827 -0.169755
-0.300441 0.084473 -0.177138
-0.236725 -0.062177 -0.190624
-0.228950 -0.070666 -0.181939
-0.243993 -0.070717 -0.187168
-0.228950 -0.070666 -0.181939
-0.236560 -0.078281 -0.177890
-0.243993 -0.070717 -0.187168
-0.228950 -0.070666 -0.181939
-0.221509 -0.078665 -0.172677
-0.236560 -0.078281 -0.177890
-0.243993 -0.070717 -0.187168
-0.236560 -0.078281 -0.177890
-0.251574 -0.077672 -0.183169
-0.221509 -0.078665 -0.172677
-0.229410 -0.085200 -0.168123
-0.236560 -0.078281 -0.177890
-0.229410 -0.085200 -0.168123
-0.244404 -0.084157 -0.173436
-0.236560 -0.078281 -0.177890
-0.229410 -0.085200 -0.168123
-0.237458 -0.089894 -0.163317
-0.244404 -0.084157 -0.173436
-0.236560 -0.078281 -0.177890
-0.244404 -0.084157 -0.173436
-0.251574 -0.077672 -0.183169
-0.221509 -0.078665 -0.172677
-0.214370 -0.086029 -0.162890
-0.229410 -0.085200 -0.168123
-0.214370 -0.086029 -0.162890
-0.222503 -0.091365 -0.157936
-0.229410 -0.085200 -0.168123
-0.214370 -0.086029 -0.162890
-0.207493 -0.092638 -0.152650
-0.222503 -0.091365 -0.157936
-0.229410 -0.085200 -0.168123
-0.222503 -0.091365 -0.157936
-0.237458 -0.089894 -0.163317
-0.251574 -0.077672 -0.183169
-0.244404 -0.084157 -0.173436
-0.259348 -0.082910 -0.178836
-0.244404 -0.084157 -0.173436
-0.252355 -0.088235 -0.168797
-0.259348 -0.082910 -0.178836
-0.244404 -0.084157 -0.173436
-0.237458 -0.089894 -0.163317
-0.252355 -0.088235 -0.168797
-0.259348 -0.082910 -0.178836
-0.252355 -0.088235 -0.168797
-0.267193 -0.086400 -0.174380
-0.124489 0.098600 -0.122230
-0.128566 0.088389 -0.132849
-0.136720 0.096233 -0.128459
-0.128566 0.088389 -0.132849
-0.140894 0.086177 -0.138911
-0.136720 0.096233 -0.128459
-0.128566 0.088389 -0.132849
-0.133131 0.077009 -0.142622
-0.140894 0.086177 -0.138911
-0.136720 0.096233 -0.128459
-0.140894 0.086177 -0.138911
-0.148957 0.093875 -0.134678
-0.133131 0.077009 -0.142622
-0.145550 0.074992 -0.148527
-0.140894 0.086177 -0.138911
-0.145550 0.074992 -0.148527
-0.153227 0.083977 -0.144963
-0.140894 0.086177 -0.138911
-0.145550 0.074992 -0.148527
-0.157972 0.072988 -0.154425
-0.153227 0.083977 -0.144963
-0.140894 0.086177 -0.138911
-0.153227 0.083977 -0.144963
-0.148957 0.093875 -0.134678
-0.133131 0.077009 -0.142622
-0.138250 0.064757 -0.151437
-0.145550 0.074992 -0.148527
-0.138250 0.064757 -0.151437
-0.150750 0.062969 -0.157201
-0.145550 0.074992 -0.148527
-0.138250 0.064757 -0.151437
-0.143960 0.051962 -0.159228
-0.150750 0.062969 -0.157201
-0.145550 0.074992 -0.148527
-0.150750 0.062969 -0.157201
-0.157972 0.072988 -0.154425
-0.148957 0.093875 -0.134678
-0.153227 0.083977 -0.144963
-0.161199 0.091526 -0.140888
-0.153227 0.083977 -0.144963
-0.165564 0.081787 -0.151008
-0.161199 0.091526 -0.140888
-0.153227 0.083977 -0.144963
-0.157972 0.072988 -0.154425
-0.165564 0.081787 -0.151008
-0.161199 0.091526 -0.140888
-0.165564 0.081787 -0.151008
-0.173446 0.089186 -0.147090
-0.143960 0.051962 -0.159228
-0.159471 0.051647 -0.165595
-0.150750 0.062969 -0.157201
-0.159471 0.051647 -0.165595
-0.166241 0.062257 -0.163601
-0.150750 0.062969 -0.157201
-0.159471 0.051647 -0.165595
-0.174974 0.051261 -0.171973
-0.166241 0.062257 -0.163601
-0.150750 0.062969 -0.157201
-0.166241 0.062257 -0.163601
-0.157972 0.072988 -0.154425
-0.174974 0.051261 -0.171973
-0.181722 0.061476 -0.170019
-0.166241 0.062257 -0.163601
-0.181722 0.061476 -0.170019
-0.173426 0.071878 -0.160890
-0.166241 0.062257 -0.163601
-0.181722 0.061476 -0.170019
-0.188867 0.070702 -0.167378
-0.173426 0.071878 -0.160890
-0.166241 0.062257 -0.163601
-0.173426 0.071878 -0.160890
-0.157972 0.072988 -0.154425
-0.174974 0.051261 -0.171973
-0.190471 0.050806 -0.178365
-0.181722 0.061476 -0.170019
-0.190471 0.050806 -0.178365
-0.197193 0.060627 -0.176454
-0.181722 0.061476 -0.170019
-0.190471 0.050806 -0.178365
-0.205959 0.050280 -0.184769
-0.197193 0.060627 -0.176454
-0.181722 0.061476 -0.170019
-0.197193 0.060627 -0.176454
-0.188867 0.070702 -0.167378
-0.157972 0.072988 -0.154425
-0.173426 0.071878 -0.160890
-0.165564 0.081787 -0.151008
-0.173426 0.071878 -0.160890
-0.180962 0.080288 -0.157570
-0.165564 0.081787 -0.151008
-0.173426 0.071878 -0.160890
-0.188867 0.070702 -0.167378
-0.180962 0.080288 -0.157570
-0.165564 0.081787 -0.151008
-0.180962 0.080288 -0.157570
-0.173446 0.089186 -0.147090
-0.293352 -0.076240 -0.196422
-0.301616 -0.070473 -0.205977
-0.288881 -0.068833 -0.203826
-0.301616 -0.070473 -0.205977
-0.297478 -0.061951 -0.212805
-0.288881 -0.068833 -0.203826
-0.301616 -0.070473 -0.205977
-0.310115 -0.064182 -0.215127
-0.297478 -0.061951 -0.212805
-0.288881 -0.068833 -0.203826
-0.297478 -0.061951 -0.212805
-0.284859 -0.059072 -0.210452
-0.310115 -0.064182 -0.215127
-0.306362 -0.054712 -0.221287
-0.297478 -0.061951 -0.212805
-0.306362 -0.054712 -0.221287
-0.293891 -0.051341 -0.218677
-0.297478 -0.061951 -0.212805
-0.306362 -0.054712 -0.221287
-0.303241 -0.043474 -0.226351
-0.293891 -0.051341 -0.218677
-0.297478 -0.061951 -0.212805
-0.293891 -0.051341 -0.218677
-0.284859 -0.059072 -0.210452
-0.310115 -0.064182 -0.215127
-0.318875 -0.057473 -0.223824
-0.306362 -0.054712 -0.221287
-0.318875 -0.057473 -0.223824
-0.315548 -0.047252 -0.229246
-0.306362 -0.054712 -0.221287
-0.318875 -0.057473 -0.223824
-0.327916 -0.050466 -0.232032
-0.315548 -0.047252 -0.229246
-0.306362 -0.054712 -0.221287
-0.315548 -0.047252 -0.229246
-0.303241 -0.043474 -0.226351
-0.284859 -0.059072 -0.210452
-0.293891 -0.051341 -0.218677
-0.281485 -0.047380 -0.215954
-0.293891 -0.051341 -0.218677
-0.291019 -0.039164 -0.223311
-0.281485 -0.047380 -0.215954
-0.293891 -0.051341 -0.218677
-0.303241 -0.043474 -0.226351
-0.291019 -0.039164 -0.223311
-0.281485 -0.047380 -0.215954
-0.291019 -0.039164 -0.223311
-0.278899 -0.034363 -0.220094
-0.293352 -0.076240 -0.196422
-0.306034 -0.076727 -0.198326
-0.301616 -0.070473 -0.205977
-0.306034 -0.076727 -0.198326
-0.314251 -0.071614 -0.207963
-0.301616 -0.070473 -0.205977
-0.306034 -0.076727 -0.198326
-0.318627 -0.076559 -0.200382
-0.314251 -0.071614 -0.207963
-0.301616 -0.070473 -0.205977
-0.314251 -0.071614 -0.207963
-0.310115 -0.064182 -0.215127
-0.318627 -0.076559 -0.200382
-0.326421 -0.071602 -0.210754
-0.314251 -0.071614 -0.207963
-0.326421 -0.071602 -0.210754
-0.322291 -0.065237 -0.217906
-0.314251 -0.071614 -0.207963
-0.326421 -0.071602 -0.210754
-0.334433 -0.065833 -0.220744
-0.322291 -0.065237 -0.217906
-0.314251 -0.071614 -0.207963
-0.322291 -0.065237 -0.217906
-0.310115 -0.064182 -0.215127
-0.318627 -0.076559 -0.200382
-0.331111 -0.075789 -0.202630
-0.326421 -0.071602 -0.210754
-0.331111 -0.075789 -0.202630
-0.338674 -0.071319 -0.213399
-0.326421 -0.071602 -0.210754
-0.331111 -0.075789 -0.202630
-0.343466 -0.074478 -0.205099
-0.338674 -0.071319 -0.213399
-0.326421 -0.071602 -0.210754
-0.338674 -0.071319 -0.213399
-0.334433 -0.065833 -0.220744
-0.310115 -0.064182 -0.215127
-0.322291 -0.065237 -0.217906
-0.318875 -0.057473 -0.223824
-0.322291 -0.065237 -0.217906
-0.330851 -0.058703 -0.226950
-0.318875 -0.057473 -0.223824
-0.322291 -0.065237 -0.217906
-0.334433 -0.065833 -0.220744
-0.330851 -0.058703 -0.226950
-0.318875 -0.057473 -0.223824
-0.330851 -0.058703 -0.226950
-0.327916 -0.050466 -0.232032
-0.343466 -0.074478 -0.205099
-0.331111 -0.075789 -0.202630
-0.335142 -0.077604 -0.191057
-0.331111 -0.075789 -0.202630
-0.322913 -0.079866 -0.188369
-0.335142 -0.077604 -0.191057
-0.331111 -0.075789 -0.202630
-0.318627 -0.076559 -0.200382
-0.322913 -0.079866 -0.188369
-0.335142 -0.077604 -0.191057
-0.322913 -0.079866 -0.188369
-0.327184 -0.078673 -0.176380
-0.318627 -0.076559 -0.200382
-0.310541 -0.081690 -0.185927
-0.322913 -0.079866 -0.188369
-0.310541 -0.081690 -0.185927
-0.314931 -0.081902 -0.173733
-0.322913 -0.079866 -0.188369
-0.310541 -0.081690 -0.185927
-0.302600 -0.084691 -0.171222
-0.314931 -0.081902 -0.173733
-0.322913 -0.079866 -0.188369
-0.314931 -0.081902 -0.173733
-0.327184 -0.078673 -0.176380
-0.318627 -0.076559 -0.200382
-0.306034 -0.076727 -0.198326
-0.310541 -0.081690 -0.185927
-0.306034 -0.076727 -0.198326
-0.298022 -0.083006 -0.183742
-0.310541 -0.081690 -0.185927
-0.306034 -0.076727 -0.198326
-0.293352 -0.076240 -0.196422
-0.298022 -0.083006 -0.183742
-0.310541 -0.081690 -0.185927
-0.298022 -0.083006 -0.183742
-0.302600 -0.084691 -0.171222
-0.327184 -0.078673 -0.176380
-0.314931 -0.081902 -0.173733
-0.319580 -0.077228 -0.161090
-0.314931 -0.081902 -0.173733
-0.307376 -0.081549 -0.158358
-0.319580 -0.077228 -0.161090
-0.314931 -0.081902 -0.173733
-0.302600 -0.084691 -0.171222
-0.307376 -0.081549 -0.158358
-0.319580 -0.077228 -0.161090
-0.307376 -0.081549 -0.158358
-0.312115 -0.072903 -0.145559
-0.293352 -0.076240 -0.196422
-0.286753 -0.078877 -0.191015
-0.298022 -0.083006 -0.183742
-0.286753 -0.078877 -0.191015
-0.291564 -0.085020 -0.178091
-0.298022 -0.083006 -0.183742
-0.286753 -0.078877 -0.191015
-0.280194 -0.081453 -0.185537
-0.291564 -0.085020 -0.178091
-0.298022 -0.083006 -0.183742
-0.291564 -0.085020 -0.178091
-0.302600 -0.084691 -0.171222
-0.280194 -0.081453 -0.185537
-0.285133 -0.086955 -0.172391
-0.291564 -0.085020 -0.178091
-0.285133 -0.086955 -0.172391
-0.296248 -0.086078 -0.165386
-0.291564 -0.085020 -0.178091
-0.285133 -0.086955 -0.172391
-0.289938 -0.087365 -0.159477
-0.296248 -0.086078 -0.165386
-0.291564 -0.085020 -0.178091
-0.296248 -0.086078 -0.165386
-0.302600 -0.084691 -0.171222
-0.280194 -0.081453 -0.185537
-0.273675 -0.083962 -0.179991
-0.285133 -0.086955 -0.172391
-0.273675 -0.083962 -0.179991
-0.278730 -0.088807 -0.166644
-0.285133 -0.086955 -0.172391
-0.273675 -0.083962 -0.179991
-0.267193 -0.086400 -0.174380
-0.278730 -0.088807 -0.166644
-0.285133 -0.086955 -0.172391
-0.278730 -0.088807 -0.166644
-0.289938 -0.087365 -0.159477
-0.302600 -0.084691 -0.171222
-0.296248 -0.086078 -0.165386
-0.307376 -0.081549 -0.158358
-0.296248 -0.086078 -0.165386
-0.301180 -0.082146 -0.152253
-0.307376 -0.081549 -0.158358
-0.296248 -0.086078 -0.165386
-0.289938 -0.087365 -0.159477
-0.301180 -0.082146 -0.152253
-0.307376 -0.081549 -0.158358
-0.301180 -0.082146 -0.152253
-0.312115 -0.072903 -0.145559
-0.293352 -0.076240 -0.196422
-0.279171 -0.074369 -0.195014
-0.286753 -0.078877 -0.191015
-0.279171 -0.074369 -0.195014
-0.272518 -0.077269 -0.189700
-0.286753 -0.078877 -0.191015
-0.279171 -0.074369 -0.195014
-0.264968 -0.071404 -0.193644
-0.272518 -0.077269 -0.189700
-0.286753 -0.078877 -0.191015
-0.272518 -0.077269 -0.189700
-0.280194 -0.081453 -0.185537
-0.264968 -0.071404 -0.193644
-0.258246 -0.074557 -0.188450
-0.272518 -0.077269 -0.189700
-0.258246 -0.074557 -0.188450
-0.265911 -0.080118 -0.184306
-0.272518 -0.077269 -0.189700
-0.258246 -0.074557 -0.188450
-0.251574 -0.077672 -0.183169
-0.265911 -0.080118 -0.184306
-0.272518 -0.077269 -0.189700
-0.265911 -0.080118 -0.184306
-0.280194 -0.081453 -0.185537
-0.264968 -0.071404 -0.193644
-0.250801 -0.067333 -0.192214
-0.258246 -0.074557 -0.188450
-0.250801 -0.067333 -0.192214
-0.243993 -0.070717 -0.187168
-0.258246 -0.074557 -0.188450
-0.250801 -0.067333 -0.192214
-0.236725 -0.062177 -0.190624
-0.243993 -0.070717 -0.187168
-0.258246 -0.074557 -0.188450
-0.243993 -0.070717 -0.187168
-0.251574 -0.077672 -0.183169
-0.280194 -0.081453 -0.185537
-0.265911 -0.080118 -0.184306
-0.273675 -0.083962 -0.179991
-0.265911 -0.080118 -0.184306
-0.259348 -0.082910 -0.178836
-0.273675 -0.083962 -0.179991
-0.265911 -0.080118 -0.184306
-0.251574 -0.077672 -0.183169
-0.259348 -0.082910 -0.178836
-0.273675 -0.083962 -0.179991
-0.259348 -0.082910 -0.178836
-0.267193 -0.086400 -0.174380
-0.278899 -0.034363 -0.220094
-0.268029 -0.041170 -0.213292
-0.281485 -0.047380 -0.215954
-0.268029 -0.041170 -0.213292
-0.271042 -0.054066 -0.208414
-0.281485 -0.047380 -0.215954
-0.268029 -0.041170 -0.213292
-0.257372 -0.048123 -0.206121
-0.271042 -0.054066 -0.208414
-0.281485 -0.047380 -0.215954
-0.271042 -0.054066 -0.208414
-0.284859 -0.059072 -0.210452
-0.257372 -0.048123 -0.206121
-0.260814 -0.060742 -0.200500
-0.271042 -0.054066 -0.208414
-0.260814 -0.060742 -0.200500
-0.274813 -0.065317 -0.202222
-0.271042 -0.054066 -0.208414
-0.260814 -0.060742 -0.200500
-0.264968 -0.071404 -0.193644
-0.274813 -0.065317 -0.202222
-0.271042 -0.054066 -0.208414
-0.274813 -0.065317 -0.202222
-0.284859 -0.059072 -0.210452
-0.257372 -0.048123 -0.206121
-0.246936 -0.055151 -0.198567
-0.260814 -0.060742 -0.200500
-0.246936 -0.055151 -0.198567
-0.250801 -0.067333 -0.192214
-0.260814 -0.060742 -0.200500
-0.246936 -0.055151 -0.198567
-0.236725 -0.062177 -0.190624
-0.250801 -0.067333 -0.192214
-0.260814 -0.060742 -0.200500
-0.250801 -0.067333 -0.192214
-0.264968 -0.071404 -0.193644
-0.284859 -0.059072 -0.210452
-0.274813 -0.065317 -0.202222
-0.288881 -0.068833 -0.203826
-0.274813 -0.065317 -0.202222
-0.279171 -0.074369 -0.195014
-0.288881 -0.068833 -0.203826
-0.274813 -0.065317 -0.202222
-0.264968 -0.071404 -0.193644
-0.279171 -0.074369 -0.195014
-0.288881 -0.068833 -0.203826
-0.279171 -0.074369 -0.195014
-0.293352 -0.076240 -0.196422
-0.143960 0.051962 -0.159228
-0.126489 0.054254 -0.151324
-0.135972 0.040835 -0.159580
-0.126489 0.054254 -0.151324
-0.118419 0.042783 -0.151816
-0.135972 0.040835 -0.159580
-0.126489 0.054254 -0.151324
-0.109026 0.056582 -0.143405
-0.118419 0.042783 -0.151816
-0.135972 0.040835 -0.159580
-0.118419 0.042783 -0.151816
-0.128431 0.029205 -0.159157
-0.109026 0.056582 -0.143405
-0.100873 0.044770 -0.144042
-0.118419 0.042783 -0.151816
-0.100873 0.044770 -0.144042
-0.110811 0.030788 -0.151509
-0.118419 0.042783 -0.151816
-0.100873 0.044770 -0.144042
-0.093197 0.032411 -0.143853
-0.110811 0.030788 -0.151509
-0.118419 0.042783 -0.151816
-0.110811 0.030788 -0.151509
-0.128431 0.029205 -0.159157
-0.109026 0.056582 -0.143405
-0.091571 0.058948 -0.135472
-0.100873 0.044770 -0.144042
-0.091571 0.058948 -0.135472
-0.083334 0.046796 -0.136255
-0.100873 0.044770 -0.144042
-0.091571 0.058948 -0.135472
-0.074125 0.061351 -0.127524
-0.083334 0.046796 -0.136255
-0.100873 0.044770 -0.144042
-0.083334 0.046796 -0.136255
-0.093197 0.032411 -0.143853
-0.128431 0.029205 -0.159157
-0.110811 0.030788 -0.151509
-0.121340 0.017312 -0.157954
-0.110811 0.030788 -0.151509
-0.103669 0.018517 -0.150396
-0.121340 0.017312 -0.157954
-0.110811 0.030788 -0.151509
-0.093197 0.032411 -0.143853
-0.103669 0.018517 -0.150396
-0.121340 0.017312 -0.157954
-0.103669 0.018517 -0.150396
-0.114686 0.005380 -0.155995
-0.124489 0.098600 -0.122230
-0.111452 0.091591 -0.124325
-0.128566 0.088389 -0.132849
-0.111452 0.091591 -0.124325
-0.115886 0.079957 -0.134326
-0.128566 0.088389 -0.132849
-0.111452 0.091591 -0.124325
-0.098653 0.082936 -0.126010
-0.115886 0.079957 -0.134326
-0.128566 0.088389 -0.132849
-0.115886 0.079957 -0.134326
-0.133131 0.077009 -0.142622
-0.098653 0.082936 -0.126010
-0.103529 0.070075 -0.135245
-0.115886 0.079957 -0.134326
-0.103529 0.070075 -0.135245
-0.120885 0.067399 -0.143350
-0.115886 0.079957 -0.134326
-0.103529 0.070075 -0.135245
-0.109026 0.056582 -0.143405
-0.120885 0.067399 -0.143350
-0.115886 0.079957 -0.134326
-0.120885 0.067399 -0.143350
-0.133131 0.077009 -0.142622
-0.098653 0.082936 -0.126010
-0.086184 0.072785 -0.127122
-0.103529 0.070075 -0.135245
-0.086184 0.072785 -0.127122
-0.091571 0.058948 -0.135472
-0.103529 0.070075 -0.135245
-0.086184 0.072785 -0.127122
-0.074125 0.061351 -0.127524
-0.091571 0.058948 -0.135472
-0.103529 0.070075 -0.135245
-0.091571 0.058948 -0.135472
-0.109026 0.056582 -0.143405
-0.133131 0.077009 -0.142622
-0.120885 0.067399 -0.143350
-0.138250 0.064757 -0.151437
-0.120885 0.067399 -0.143350
-0.126489 0.054254 -0.151324
-0.138250 0.064757 -0.151437
-0.120885 0.067399 -0.143350
-0.109026 0.056582 -0.143405
-0.126489 0.054254 -0.151324
-0.138250 0.064757 -0.151437
-0.126489 0.054254 -0.151324
-0.143960 0.051962 -0.159228
-0.173992 0.111273 -0.107602
-0.186931 0.107764 -0.118112
-0.183841 0.110427 -0.102751
-0.186931 0.107764 -0.118112
-0.196704 0.107428 -0.113393
-0.183841 0.110427 -0.102751
-0.186931 0.107764 -0.118112
-0.199938 0.104112 -0.128503
-0.196704 0.107428 -0.113393
-0.183841 0.110427 -0.102751
-0.196704 0.107428 -0.113393
-0.193688 0.107865 -0.097904
-0.199938 0.104112 -0.128503
-0.209646 0.104276 -0.123896
-0.196704 0.107428 -0.113393
-0.209646 0.104276 -0.123896
-0.206388 0.105434 -0.108828
-0.196704 0.107428 -0.113393
-0.209646 0.104276 -0.123896
-0.219179 0.102802 -0.119592
-0.206388 0.105434 -0.108828
-0.196704 0.107428 -0.113393
-0.206388 0.105434 -0.108828
-0.193688 0.107865 -0.097904
-0.199938 0.104112 -0.128503
-0.213016 0.100327 -0.138770
-0.209646 0.104276 -0.123896
-0.213016 0.100327 -0.138770
-0.222648 0.100981 -0.134295
-0.209646 0.104276 -0.123896
-0.213016 0.100327 -0.138770
-0.226171 0.096419 -0.148906
-0.222648 0.100981 -0.134295
-0.209646 0.104276 -0.123896
-0.222648 0.100981 -0.134295
-0.219179 0.102802 -0.119592
-0.193688 0.107865 -0.097904
-0.206388 0.105434 -0.108828
-0.203528 0.103466 -0.093070
-0.206388 0.105434 -0.108828
-0.216096 0.101697 -0.104220
-0.203528 0.103466 -0.093070
-0.206388 0.105434 -0.108828
-0.219179 0.102802 -0.119592
-0.216096 0.101697 -0.104220
-0.203528 0.103466 -0.093070
-0.216096 0.101697 -0.104220
-0.213232 0.097167 -0.088469
-0.173992 0.111273 -0.107602
-0.173699 0.108409 -0.117746
-0.186931 0.107764 -0.118112
-0.173699 0.108409 -0.117746
-0.186748 0.104408 -0.128064
-0.186931 0.107764 -0.118112
-0.173699 0.108409 -0.117746
-0.173431 0.103785 -0.127846
-0.186748 0.104408 -0.128064
-0.186931 0.107764 -0.118112
-0.186748 0.104408 -0.128064
-0.199938 0.104112 -0.128503
-0.173431 0.103785 -0.127846
-0.186626 0.099317 -0.137910
-0.186748 0.104408 -0.128064
-0.186626 0.099317 -0.137910
-0.199876 0.100284 -0.138245
-0.186748 0.104408 -0.128064
-0.186626 0.099317 -0.137910
-0.199913 0.094755 -0.147817
-0.199876 0.100284 -0.138245
-0.186748 0.104408 -0.128064
-0.199876 0.100284 -0.138245
-0.199938 0.104112 -0.128503
-0.173431 0.103785 -0.127846
-0.173305 0.097360 -0.137699
-0.186626 0.099317 -0.137910
-0.173305 0.097360 -0.137699
-0.186684 0.092479 -0.147445
-0.186626 0.099317 -0.137910
-0.173305 0.097360 -0.137699
-0.173446 0.089186 -0.147090
-0.186684 0.092479 -0.147445
-0.186626 0.099317 -0.137910
-0.186684 0.092479 -0.147445
-0.199913 0.094755 -0.147817
-0.199938 0.104112 -0.128503
-0.199876 0.100284 -0.138245
-0.213016 0.100327 -0.138770
-0.199876 0.100284 -0.138245
-0.213089 0.096050 -0.148280
-0.213016 0.100327 -0.138770
-0.199876 0.100284 -0.138245
-0.199913 0.094755 -0.147817
-0.213089 0.096050 -0.148280
-0.213016 0.100327 -0.138770
-0.213089 0.096050 -0.148280
-0.226171 0.096419 -0.148906
-0.312115 -0.072903 -0.145559
-0.295470 -0.080460 -0.141799
-0.299772 -0.076025 -0.138432
-0.295470 -0.080460 -0.141799
-0.283010 -0.083551 -0.134867
-0.299772 -0.076025 -0.138432
-0.295470 -0.080460 -0.141799
-0.278504 -0.087135 -0.138593
-0.283010 -0.083551 -0.134867
-0.299772 -0.076025 -0.138432
-0.283010 -0.083551 -0.134867
-0.287422 -0.079117 -0.131302
-0.278504 -0.087135 -0.138593
-0.265948 -0.090141 -0.131815
-0.283010 -0.083551 -0.134867
-0.265948 -0.090141 -0.131815
-0.270544 -0.086613 -0.127932
-0.283010 -0.083551 -0.134867
-0.265948 -0.090141 -0.131815
-0.253364 -0.093148 -0.125086
-0.270544 -0.086613 -0.127932
-0.283010 -0.083551 -0.134867
-0.270544 -0.086613 -0.127932
-0.287422 -0.079117 -0.131302
-0.278504 -0.087135 -0.138593
-0.261283 -0.092810 -0.135831
-0.265948 -0.090141 -0.131815
-0.261283 -0.092810 -0.135831
-0.248615 -0.095729 -0.129246
-0.265948 -0.090141 -0.131815
-0.261283 -0.092810 -0.135831
-0.243873 -0.097420 -0.133393
-0.248615 -0.095729 -0.129246
-0.265948 -0.090141 -0.131815
-0.248615 -0.095729 -0.129246
-0.253364 -0.093148 -0.125086
-0.287422 -0.079117 -0.131302
-0.270544 -0.086613 -0.127932
-0.275067 -0.082180 -0.124169
-0.270544 -0.086613 -0.127932
-0.258078 -0.089646 -0.120987
-0.275067 -0.082180 -0.124169
-0.270544 -0.086613 -0.127932
-0.253364 -0.093148 -0.125086
-0.258078 -0.089646 -0.120987
-0.275067 -0.082180 -0.124169
-0.258078 -0.089646 -0.120987
-0.262708 -0.085218 -0.117033
-0.267193 -0.086400 -0.174380
-0.261241 -0.090484 -0.164346
-0.278730 -0.088807 -0.166644
-0.261241 -0.090484 -0.164346
-0.272754 -0.091018 -0.156651
-0.278730 -0.088807 -0.166644
-0.261241 -0.090484 -0.164346
-0.255380 -0.093675 -0.154153
-0.272754 -0.091018 -0.156651
-0.278730 -0.088807 -0.166644
-0.272754 -0.091018 -0.156651
-0.289938 -0.087365 -0.159477
-0.255380 -0.093675 -0.154153
-0.266921 -0.092392 -0.146409
-0.272754 -0.091018 -0.156651
-0.266921 -0.092392 -0.146409
-0.284148 -0.087770 -0.149162
-0.272754 -0.091018 -0.156651
-0.266921 -0.092392 -0.146409
-0.278504 -0.087135 -0.138593
-0.284148 -0.087770 -0.149162
-0.272754 -0.091018 -0.156651
-0.284148 -0.087770 -0.149162
-0.289938 -0.087365 -0.159477
-0.255380 -0.093675 -0.154153
-0.249563 -0.095987 -0.143883
-0.266921 -0.092392 -0.146409
-0.249563 -0.095987 -0.143883
-0.261283 -0.092810 -0.135831
-0.266921 -0.092392 -0.146409
-0.249563 -0.095987 -0.143883
-0.243873 -0.097420 -0.133393
-0.261283 -0.092810 -0.135831
-0.266921 -0.092392 -0.146409
-0.261283 -0.092810 -0.135831
-0.278504 -0.087135 -0.138593
-0.289938 -0.087365 -0.159477
-0.284148 -0.087770 -0.149162
-0.301180 -0.082146 -0.152253
-0.284148 -0.087770 -0.149162
-0.295470 -0.080460 -0.141799
-0.301180 -0.082146 -0.152253
-0.284148 -0.087770 -0.149162
-0.278504 -0.087135 -0.138593
-0.295470 -0.080460 -0.141799
-0.301180 -0.082146 -0.152253
-0.295470 -0.080460 -0.141799
-0.312115 -0.072903 -0.145559
-0.267193 -0.086400 -0.174380
-0.252355 -0.088235 -0.168797
-0.261241 -0.090484 -0.164346
-0.252355 -0.088235 -0.168797
-0.246479 -0.092711 -0.158630
-0.261241 -0.090484 -0.164346
-0.252355 -0.088235 -0.168797
-0.237458 -0.089894 -0.163317
-0.246479 -0.092711 -0.158630
-0.261241 -0.090484 -0.164346
-0.246479 -0.092711 -0.158630
-0.255380 -0.093675 -0.154153
-0.237458 -0.089894 -0.163317
-0.231652 -0.094784 -0.153028
-0.246479 -0.092711 -0.158630
-0.231652 -0.094784 -0.153028
-0.240710 -0.096257 -0.148278
-0.246479 -0.092711 -0.158630
-0.231652 -0.094784 -0.153028
-0.225971 -0.098710 -0.142524
-0.240710 -0.096257 -0.148278
-0.246479 -0.092711 -0.158630
-0.240710 -0.096257 -0.148278
-0.255380 -0.093675 -0.154153
-0.237458 -0.089894 -0.163317
-0.222503 -0.091365 -0.157936
-0.231652 -0.094784 -0.153028
-0.222503 -0.091365 -0.157936
-0.216761 -0.096691 -0.147537
-0.231652 -0.094784 -0.153028
-0.222503 -0.091365 -0.157936
-0.207493 -0.092638 -0.152650
-0.216761 -0.096691 -0.147537
-0.231652 -0.094784 -0.153028
-0.216761 -0.096691 -0.147537
-0.225971 -0.098710 -0.142524
-0.255380 -0.093675 -0.154153
-0.240710 -0.096257 -0.148278
-0.249563 -0.095987 -0.143883
-0.240710 -0.096257 -0.148278
-0.234998 -0.098880 -0.137827
-0.249563 -0.095987 -0.143883
-0.240710 -0.096257 -0.148278
-0.225971 -0.098710 -0.142524
-0.234998 -0.098880 -0.137827
-0.249563 -0.095987 -0.143883
-0.234998 -0.098880 -0.137827
-0.243873 -0.097420 -0.133393
-0.207493 -0.092638 -0.152650
-0.190910 -0.092948 -0.148024
-0.200837 -0.098404 -0.142034
-0.190910 -0.092948 -0.148024
-0.184273 -0.099357 -0.137373
-0.200837 -0.098404 -0.142034
-0.190910 -0.092948 -0.148024
-0.174260 -0.092801 -0.143511
-0.184273 -0.099357 -0.137373
-0.200837 -0.098404 -0.142034
-0.184273 -0.099357 -0.137373
-0.194347 -0.103263 -0.131130
-0.174260 -0.092801 -0.143511
-0.167626 -0.099876 -0.132858
-0.184273 -0.099357 -0.137373
-0.167626 -0.099876 -0.132858
-0.177833 -0.104844 -0.126383
-0.184273 -0.099357 -0.137373
-0.167626 -0.099876 -0.132858
-0.161218 -0.106024 -0.121811
-0.177833 -0.104844 -0.126383
-0.184273 -0.099357 -0.137373
-0.177833 -0.104844 -0.126383
-0.194347 -0.103263 -0.131130
-0.174260 -0.092801 -0.143511
-0.157557 -0.092175 -0.139092
-0.167626 -0.099876 -0.132858
-0.157557 -0.092175 -0.139092
-0.150904 -0.099934 -0.128470
-0.167626 -0.099876 -0.132858
-0.157557 -0.092175 -0.139092
-0.140814 -0.091055 -0.134742
-0.150904 -0.099934 -0.128470
-0.167626 -0.099876 -0.132858
-0.150904 -0.099934 -0.128470
-0.161218 -0.106024 -0.121811
-0.194347 -0.103263 -0.131130
-0.177833 -0.104844 -0.126383
-0.187973 -0.107189 -0.120026
-0.177833 -0.104844 -0.126383
-0.171536 -0.109367 -0.115145
-0.187973 -0.107189 -0.120026
-0.177833 -0.104844 -0.126383
-0.161218 -0.106024 -0.121811
-0.171536 -0.109367 -0.115145
-0.187973 -0.107189 -0.120026
-0.171536 -0.109367 -0.115145
-0.181666 -0.110183 -0.108805
-0.207493 -0.092638 -0.152650
-0.200012 -0.087388 -0.157140
-0.190910 -0.092948 -0.148024
-0.200012 -0.087388 -0.157140
-0.183394 -0.086831 -0.152573
-0.190910 -0.092948 -0.148024
-0.200012 -0.087388 -0.157140
-0.192700 -0.080605 -0.161337
-0.183394 -0.086831 -0.152573
-0.190910 -0.092948 -0.148024
-0.183394 -0.086831 -0.152573
-0.174260 -0.092801 -0.143511
-0.192700 -0.080605 -0.161337
-0.176097 -0.079176 -0.156743
-0.183394 -0.086831 -0.152573
-0.176097 -0.079176 -0.156743
-0.166735 -0.085792 -0.148077
-0.183394 -0.086831 -0.152573
-0.176097 -0.079176 -0.156743
-0.159481 -0.077262 -0.152174
-0.166735 -0.085792 -0.148077
-0.183394 -0.086831 -0.152573
-0.166735 -0.085792 -0.148077
-0.174260 -0.092801 -0.143511
-0.192700 -0.080605 -0.161337
-0.185652 -0.072386 -0.165075
-0.176097 -0.079176 -0.156743
-0.185652 -0.072386 -0.165075
-0.169115 -0.070121 -0.160368
-0.176097 -0.079176 -0.156743
-0.185652 -0.072386 -0.165075
-0.178956 -0.062900 -0.168206
-0.169115 -0.070121 -0.160368
-0.176097 -0.079176 -0.156743
-0.169115 -0.070121 -0.160368
-0.159481 -0.077262 -0.152174
-0.174260 -0.092801 -0.143511
-0.166735 -0.085792 -0.148077
-0.157557 -0.092175 -0.139092
-0.166735 -0.085792 -0.148077
-0.150049 -0.084261 -0.143628
-0.157557 -0.092175 -0.139092
-0.166735 -0.085792 -0.148077
-0.159481 -0.077262 -0.152174
-0.150049 -0.084261 -0.143628
-0.157557 -0.092175 -0.139092
-0.150049 -0.084261 -0.143628
-0.140814 -0.091055 -0.134742
CELLS 1616 6464
3 0 1 2
3 3 4 5
3 6 7 8
3 9 10 11
3 12 13 14
3 15 16 17
3 18 19 20
3 21 22 23
3 24 25 26
3 27 28 29
3 30 31 32
3 33 34 35
3 36 37 38
3 39 40 41
3 42 43 44
3 45 46 47
3 48 49 50
3 51 52 53
3 54 55 56
3 57 58 59
3 60 61 62
3 63 64 65
3 66 67 68
3 69 70 71
3 72 73 74
3 75 76 77
3 78 79 80
3 81 82 83
3 84 85 86
3 87 88 89
3 90 91 92
3 93 94 95
3 96 97 98
3 99 100 101
3 102 103 104
3 105 106 107
3 108 109 110
3 111 112 113
3 114 115 116
3 117 118 119
3 120 121 122
3 123 124 125
3 126 127 128
3 129 130 131
3 132 133 134
3 135 136 137
3 138 139 140
3 141 142 143
3 144 145 146
3 147 148 149
3 150 151 152
3 153 154 155
3 156 157 158
3 159 160 161
3 162 163 164
3 165 166 167
3 168 169 170
3 171 172 173
3 174 175 176
3 177 178 179
3 180 181 182
3 183 184 185
3 186 187 188
3 189 190 191
3 192 193 194
3 195 196 197
3 198 199 200
3 201 202 203
3 204 205 206
3 207 208 209
3 210 211 212
3 213 214 215
3 216 217 218
3 219 220 221
3 222 223 224
3 225 226 227
3 228 229 230
3 231 232 233
3 234 235 236
3 237 238 239
3 240 241 242
3 243 244 245
3 246 247 248
3 249 250 251
3 252 253 254
3 255 256 257
3 258 259 260
3 261 262 263
3 264 265 266
3 267 268 269
3 270 271 272
3 273 274 275
3 276 277 278
3 279 280 281
3 282 283 284
3 285 286 287
3 288 289 290
3 291 292 293
3 294 295 296
3 297 298 299
3 300 301 302
3 303 304 305
3 306 307 308
3 309 310 311
3 312 313 314
3 315 316 317
3 318 319 320
3 321 322 323
3 324 325 326
3 327 328 329
3 330 331 332
3 333 334 335
3 336 337 338
3 339 340 341
3 342 343 344
3 345 346 347
3 348 349 350
3 351 352 353
3 354 355 356
3 357 358 359
3 360 361 362
3 363 364 365
3 366 367 368
3 369 370 371
3 372 373 374
3 375 376 377
3 378 379 380
3 381 382 383
3 384 385 386
3 387 388 389
3 390 391 392
3 393 394 395
3 396 397 398
3 399 400 401
3 402 403 404
3 405 406 407
3 408 409 410
3 411 412 413
3 414 415 416
3 417 418 419
3 420 421 422
3 423 424 425
3 426 427 428
3 429 430 431
3 432 433 434
3 435 436 437
3 438 439 440
3 441 442 443
3 444 445 446
3 447 448 449
3 450 451 452
3 453 454 455
3 456 457 458
3 459 460 461
3 462 463 464
3 465 466 467
3 468 469 470
3 471 472 473
3 474 475 476
3 477 478 479
3 480 481 482
3 483 484 485
3 486 487 488
3 489 490 491
3 492 493 494
3 495 496 497
3 498 499 500
3 501 502 503
3 504 505 506
3 507 508 509
3 510 511 512
3 513 514 515
3 516 517 518
3 519 520 521
3 522 523 524
3 525 526 527
3 528 529 530
3 531 532 533
3 534 535 536
3 537 538 539
3 540 541 542
3 543 544 545
3 546 547 548
3 549 550 551
3 552 553 554
3 555 556 557
3 558 559 560
3 561 562 563
3 564 565 566
3 567 568 569
3 570 571 572
3 573 574 575
3 576 577 578
3 579 580 581
3 582 583 584
3 585 586 587
3 588 589 590
3 591 592 593
3 594 595 596
3 597 598 599
3 600 601 602
3 603 604 605
3 606 607 608
3 609 610 611
3 612 613 614
3 615 616 617
3 618 619 620
3 621 622 623
3 624 625 626
3 627 628 629
3 630 631 632
3 633 634 635
3 636 637 638
3 639 640 641
3 642 643 644
3 645 646 647
3 648 649 650
3 651 652 653
3 654 655 656
3 657 658 659
3 660 661 662
3 663 664 665
3 666 667 668
3 669 670 671
3 672 673 674
3 675 676 677
3 678 679 680
3 681 682 683
3 684 685 686
3 687 688 689
3 690 691 692
3 693 694 695
3 696 697 698
3 699 700 701
3 702 703 704
3 705 706 707
3 708 709 710
3 711 712 713
3 714 715 716
3 717 718 719
3 720 721 722
3 723 724 725
3 726 727 728
3 729 730 731
3 732 733 734
3 735 736 737
3 738 739 740
3 741 742 743
3 744 745 746
3 747 748 749
3 750 751 752
3 753 754 755
3 756 757 758
3 759 760 761
3 762 763 764
3 765 766 767
3 768 769 770
3 771 772 773
3 774 775 776
3 777 778 779
3 780 781 782
3 783 784 785
3 786 787 788
3 789 790 791
3 792 793 794
3 795 796 797
3 798 799 800
3 801 802 803
3 804 805 806
3 807 808 809
3 810 811 812
3 813 814 815
3 816 817 818
3 819 820 821
3 822 823 824
3 825 826 827
3 828 829 830
3 831 832 833
3 834 835 836
3 837 838 839
3 840 841 842
3 843 844 845
3 846 847 848
3 849 850 851
3 852 853 854
3 855 856 857
3 858 859 860
3 861 862 863
3 864 865 866
3 867 868 869
3 870 871 872
3 873 874 875
3 876 877 878
3 879 880 881
3 882 883 884
3 885 886 887
3 888 889 890
3 891 892 893
3 894 895 896
3 897 898 899
3 900 901 902
3 903 904 905
3 906 907 908
3 909 910 911
3 912 913 914
3 915 916 917
3 918 919 920
3 921 922 923
3 924 925 926
3 927 928 929
3 930 931 932
3 933 934 935
3 936 937 938
3 939 940 941
3 942 943 944
3 945 946 947
3 948 949 950
3 951 952 953
3 954 955 956
3 957 958 959
3 960 961 962
3 963 964 965
3 966 967 968
3 969 970 971
3 972 973 974
3 975 976 977
3 978 979 980
3 981 982 983
3 984 985 986
3 987 988 989
3 990 991 992
3 993 994 995
3 996 997 998
3 999 1000 1001
3 1002 1003 1004
3 1005 1006 1007
3 1008 1009 1010
3 1011 1012 1013
3 1014 1015 1016
3 1017 1018 1019
3 1020 1021 1022
3 1023 1024 1025
3 1026 1027 1028
3 1029 1030 1031
3 1032 1033 1034
3 1035 1036 1037
3 1038 1039 1040
3 1041 1042 1043
3 1044 1045 1046
3 1047 1048 1049
3 1050 1051 1052
3 1053 1054 1055
3 1056 1057 1058
3 1059 1060 1061
3 1062 1063 1064
3 1065 1066 1067
3 1068 1069 1070
3 1071 1072 1073
3 1074 1075 1076
3 1077 1078 1079
3 1080 1081 1082
3 1083 1084 1085
3 1086 1087 1088
3 1089 1090 1091
3 1092 1093 1094
3 1095 1096 1097
3 1098 1099 1100
3 1101 1102 1103
3 1104 1105 1106
3 1107 1108 1109
3 1110 1111 1112
3 1113 1114 1115
3 1116 1117 1118
3 1119 1120 1121
3 1122 1123 1124
3 1125 1126 1127
3 1128 1129 1130
3 1131 1132 1133
3 1134 1135 1136
3 1137 1138 1139
3 1140 1141 1142
3 1143 1144 1145
3 1146 1147 1148
3 1149 1150 1151
3 1152 1153 1154
3 1155 1156 1157
3 1158 1159 1160
3 1161 1162 1163
3 1164 1165 1166
3 1167 1168 1169
3 1170 1171 1172
3 1173 1174 1175
3 1176 1177 1178
3 1179 1180 1181
3 1182 1183 1184
3 1185 1186 1187
3 1188 1189 1190
3 1191 1192 1193
3 1194 1195 1196
3 1197 1198 1199
3 1200 1201 1202
3 1203 1204 1205
3 1206 1207 1208
3 1209 1210 1211
3 1212 1213 1214
3 1215 1216 1217
3 1218 1219 1220
3 1221 1222 1223
3 1224 1225 1226
3 1227 1228 1229
3 1230 1231 1232
3 1233 1234 1235
3 1236 1237 1238
3 1239 1240 1241
3 1242 1243 1244
3 1245 1246 1247
3 1248 1249 1250
3 1251 1252 1253
3 1254 1255 1256
3 1257 1258 1259
3 1260 1261 1262
3 1263 1264 1265
3 1266 1267 1268
3 1269 1270 1271
3 1272 1273 1274
3 1275 1276 1277
3 1278 1279 1280
3 1281 1282 1283
3 1284 1285 1286
3 1287 1288 1289
3 1290 1291 1292
3 1293 1294 1295
3 1296 1297 1298
3 1299 1300 1301
3 1302 1303 1304
3 1305 1306 1307
3 1308 1309 1310
3 1311 1312 1313
3 1314 1315 1316
3 1317 1318 1319
3 1320 1321 1322
3 1323 1324 1325
3 1326 1327 1328
3 1329 1330 1331
3 1332 1333 1334
3 1335 1336 1337
3 1338 1339 1340
3 1341 1342 1343
3 1344 1345 1346
3 1347 1348 1349
3 1350 1351 1352
3 1353 1354 1355
3 1356 1357 1358
3 1359 1360 1361
3 1362 1363 1364
3 1365 1366 1367
3 1368 1369 1370
3 1371 1372 1373
3 1374 1375 1376
3 1377 1378 1379
3 1380 1381 1382
3 1383 1384 1385
3 1386 1387 1388
3 1389 1390 1391
3 1392 1393 1394
3 1395 1396 1397
3 1398 1399 1400
3 1401 1402 1403
3 1404 1405 1406
3 1407 1408 1409
3 1410 1411 1412
3 1413 1414 1415
3 1416 1417 1418
3 1419 1420 1421
3 1422 1423 1424
3 1425 1426 1427
3 1428 1429 1430
3 1431 1432 1433
3 1434 1435 1436
3 1437 1438 1439
3 1440 1441 1442
3 1443 1444 1445
3 1446 1447 1448
3 1449 1450 1451
3 1452 1453 1454
3 1455 1456 1457
3 1458 1459 1460
3 1461 1462 1463
3 1464 1465 1466
3 1467 1468 1469
3 1470 1471 1472
3 1473 1474 1475
3 1476 1477 1478
3 1479 1480 1481
3 1482 1483 1484
3 1485 1486 1487
3 1488 1489 1490
3 1491 1492 1493
3 1494 1495 1496
3 1497 1498 1499
3 1500 1501 1502
3 1503 1504 1505
3 1506 1507 1508
3 1509 1510 1511
3 1512 1513 1514
3 1515 1516 1517
3 1518 1519 1520
3 1521 1522 1523
3 1524 1525 1526
3 1527 1528 1529
3 1530 1531 1532
3 1533 1534 1535
3 1536 1537 1538
3 1539 1540 1541
3 1542 1543 1544
3 1545 1546 1547
3 1548 1549 1550
3 1551 1552 1553
3 1554 1555 1556
3 1557 1558 1559
3 1560 1561 1562
3 1563 1564 1565
3 1566 1567 1568
3 1569 1570 1571
3 1572 1573 1574
3 1575 1576 1577
3 1578 1579 1580
3 1581 1582 1583
3 1584 1585 1586
3 1587 1588 1589
3 1590 1591 1592
3 1593 1594 1595
3 1596 1597 1598
3 1599 1600 1601
3 1602 1603 1604
3 1605 1606 1607
3 1608 1609 1610
3 1611 1612 1613
3 1614 1615 1616
3 1617 1618 1619
3 1620 1621 1622
3 1623 1624 1625
3 1626 1627 1628
3 1629 1630 1631
3 1632 1633 1634
3 1635 1636 1637
3 1638 1639 1640
3 1641 1642 1643
3 1644 1645 1646
3 1647 1648 1649
3 1650 1651 1652
3 1653 1654 1655
3 1656 1657 1658
3 1659 1660 1661
3 1662 1663 1664
3 1665 1666 1667
3 1668 1669 1670
3 1671 1672 1673
3 1674 1675 1676
3 1677 1678 1679
3 1680 1681 1682
3 1683 1684 1685
3 1686 1687 1688
3 1689 1690 1691
3 1692 1693 1694
3 1695 1696 1697
3 1698 1699 1700
3 1701 1702 1703
3 1704 1705 1706
3 1707 1708 1709
3 1710 1711 1712
3 1713 1714 1715
3 1716 1717 1718
3 1719 1720 1721
3 1722 1723 1724
3 1725 1726 1727
3 1728 1729 1730
3 1731 1732 1733
3 1734 1735 1736
3 1737 1738 1739
3 1740 1741 1742
3 1743 1744 1745
3 1746 1747 1748
3 1749 1750 1751
3 1752 1753 1754
3 1755 1756 1757
3 1758 1759 1760
3 1761 1762 1763
3 1764 1765 1766
3 1767 1768 1769
3 1770 1771 1772
3 1773 1774 1775
3 1776 1777 1778
3 1779 1780 1781
3 1782 1783 1784
3 1785 1786 1787
3 1788 1789 1790
3 1791 1792 1793
3 1794 1795 1796
3 1797 1798 1799
3 1800 1801 1802
3 1803 1804 1805
3 1806 1807 1808
3 1809 1810 1811
3 1812 1813 1814
3 1815 1816 1817
3 1818 1819 1820
3 1821 1822 1823
3 1824 1825 1826
3 1827 1828 1829
3 1830 1831 1832
3 1833 1834 1835
3 1836 1837 1838
3 1839 1840 1841
3 1842 1843 1844
3 1845 1846 1847
3 1848 1849 1850
3 1851 1852 1853
3 1854 1855 1856
3 1857 1858 1859
3 1860 1861 1862
3 1863 1864 1865
3 1866 1867 1868
3 1869 1870 1871
3 1872 1873 1874
3 1875 1876 1877
3 1878 1879 1880
3 1881 1882 1883
3 1884 1885 1886
3 1887 1888 1889
3 1890 1891 1892
3 1893 1894 1895
3 1896 1897 1898
3 1899 1900 1901
3 1902 1903 1904
3 1905 1906 1907
3 1908 1909 1910
3 1911 1912 1913
3 1914 1915 1916
3 1917 1918 1919
3 1920 1921 1922
3 1923 1924 1925
3 1926 1927 1928
3 1929 1930 1931
3 1932 1933 1934
3 1935 1936 1937
3 1938 1939 1940
3 1941 1942 1943
3 1944 1945 1946
3 1947 1948 1949
3 1950 1951 1952
3 1953 1954 1955
3 1956 1957 1958
3 1959 1960 1961
3 1962 1963 1964
3 1965 1966 1967
3 1968 1969 1970
3 1971 1972 1973
3 1974 1975 1976
3 1977 1978 1979
3 1980 1981 1982
3 1983 1984 1985
3 1986 1987 1988
3 1989 1990 1991
3 1992 1993 1994
3 1995 1996 1997
3 1998 1999 2000
3 2001 2002 2003
3 2004 2005 2006
3 2007 2008 2009
3 2010 2011 2012
3 2013 2014 2015
3 2016 2017 2018
3 2019 2020 2021
3 2022 2023 2024
3 2025 2026 2027
3 2028 2029 2030
3 2031 2032 2033
3 2034 2035 2036
3 2037 2038 2039
3 2040 2041 2042
3 2043 2044 2045
3 2046 2047 2048
3 2049 2050 2051
3 2052 2053 2054
3 2055 2056 2057
3 2058 2059 2060
3 2061 2062 2063
3 2064 2065 2066
3 2067 2068 2069
3 2070 2071 2072
3 2073 2074 2075
3 2076 2077 2078
3 2079 2080 2081
3 2082 2083 2084
3 2085 2086 2087
3 2088 2089 2090
3 2091 2092 2093
3 2094 2095 2096
3 2097 2098 2099
3 2100 2101 2102
3 2103 2104 2105
3 2106 2107 2108
3 2109 2110 2111
3 2112 2113 2114
3 2115 2116 2117
3 2118 2119 2120
3 2121 2122 2123
3 2124 2125 2126
3 2127 2128 2129
3 2130 2131 2132
3 2133 2134 2135
3 2136 2137 2138
3 2139 2140 2141
3 2142 2143 2144
3 2145 2146 2147
3 2148 2149 2150
3 2151 2152 2153
3 2154 2155 2156
3 2157 2158 2159
3 2160 2161 2162
3 2163 2164 2165
3 2166 2167 2168
3 2169 2170 2171
3 2172 2173 2174
3 2175 2176 2177
3 2178 2179 2180
3 2181 2182 2183
3 2184 2185 2186
3 2187 2188 2189
3 2190 2191 2192
3 2193 2194 2195
3 2196 2197 2198
3 2199 2200 2201
3 2202 2203 2204
3 2205 2206 2207
3 2208 2209 2210
3 2211 2212 2213
3 2214 2215 2216
3 2217 2218 2219
3 2220 2221 2222
3 2223 2224 2225
3 2226 2227 2228
3 2229 2230 2231
3 2232 2233 2234
3 2235 2236 2237
3 2238 2239 2240
3 2241 2242 2243
3 2244 2245 2246
3 2247 2248 2249
3 2250 2251 2252
3 2253 2254 2255
3 2256 2257 2258
3 2259 2260 2261
3 2262 2263 2264
3 2265 2266 2267
3 2268 2269 2270
3 2271 2272 2273
3 2274 2275 2276
3 2277 2278 2279
3 2280 2281 2282
3 2283 2284 2285
3 2286 2287 2288
3 2289 2290 2291
3 2292 2293 2294
3 2295 2296 2297
3 2298 2299 2300
3 2301 2302 2303
3 2304 2305 2306
3 2307 2308 2309
3 2310 2311 2312
3 2313 2314 2315
3 2316 2317 2318
3 2319 2320 2321
3 2322 2323 2324
3 2325 2326 2327
3 2328 2329 2330
3 2331 2332 2333
3 2334 2335 2336
3 2337 2338 2339
3 2340 2341 2342
3 2343 2344 2345
3 2346 2347 2348
3 2349 2350 2351
3 2352 2353 2354
3 2355 2356 2357
3 2358 2359 2360
3 2361 2362 2363
3 2364 2365 2366
3 2367 2368 2369
3 2370 2371 2372
3 2373 2374 2375
3 2376 2377 2378
3 2379 2380 2381
3 2382 2383 2384
3 2385 2386 2387
3 2388 2389 2390
3 2391 2392 2393
3 2394 2395 2396
3 2397 2398 2399
3 2400 2401 2402
3 2403 2404 2405
3 2406 2407 2408
3 2409 2410 2411
3 2412 2413 2414
3 2415 2416 2417
3 2418 2419 2420
3 2421 2422 2423
3 2424 2425 2426
3 2427 2428 2429
3 2430 2431 2432
3 2433 2434 2435
3 2436 2437 2438
3 2439 2440 2441
3 2442 2443 2444
3 2445 2446 2447
3 2448 2449 2450
3 2451 2452 2453
3 2454 2455 2456
3 2457 2458 2459
3 2460 2461 2462
3 2463 2464 2465
3 2466 2467 2468
3 2469 2470 2471
3 2472 2473 2474
3 2475 2476 2477
3 2478 2479 2480
3 2481 2482 2483
3 2484 2485 2486
3 2487 2488 2489
3 2490 2491 2492
3 2493 2494 2495
3 2496 2497 2498
3 2499 2500 2501
3 2502 2503 2504
3 2505 2506 2507
3 2508 2509 2510
3 2511 2512 2513
3 2514 2515 2516
3 2517 2518 2519
3 2520 2521 2522
3 2523 2524 2525
3 2526 2527 2528
3 2529 2530 2531
3 2532 2533 2534
3 2535 2536 2537
3 2538 2539 2540
3 2541 2542 2543
3 2544 2545 2546
3 2547 2548 2549
3 2550 2551 2552
3 2553 2554 2555
3 2556 2557 2558
3 2559 2560 2561
3 2562 2563 2564
3 2565 2566 2567
3 2568 2569 2570
3 2571 2572 2573
3 2574 2575 2576
3 2577 2578 2579
3 2580 2581 2582
3 2583 2584 2585
3 2586 2587 2588
3 2589 2590 2591
3 2592 2593 2594
3 2595 2596 2597
3 2598 2599 2600
3 2601 2602 2603
3 2604 2605 2606
3 2607 2608 2609
3 2610 2611 2612
3 2613 2614 2615
3 2616 2617 2618
3 2619 2620 2621
3 2622 2623 2624
3 2625 2626 2627
3 2628 2629 2630
3 2631 2632 2633
3 2634 2635 2636
3 2637 2638 2639
3 2640 2641 2642
3 2643 2644 2645
3 2646 2647 2648
3 2649 2650 2651
3 2652 2653 2654
3 2655 2656 2657
3 2658 2659 2660
3 2661 2662 2663
3 2664 2665 2666
3 2667 2668 2669
3 2670 2671 2672
3 2673 2674 2675
3 2676 2677 2678
3 2679 2680 2681
3 2682 2683 2684
3 2685 2686 2687
3 2688 2689 2690
3 2691 2692 2693
3 2694 2695 2696
3 2697 2698 2699
3 2700 2701 2702
3 2703 2704 2705
3 2706 2707 2708
3 2709 2710 2711
3 2712 2713 2714
3 2715 2716 2717
3 2718 2719 2720
3 2721 2722 2723
3 2724 2725 2726
3 2727 2728 2729
3 2730 2731 2732
3 2733 2734 2735
3 2736 2737 2738
3 2739 2740 2741
3 2742 2743 2744
3 2745 2746 2747
3 2748 2749 2750
3 2751 2752 2753
3 2754 2755 2756
3 2757 2758 2759
3 2760 2761 2762
3 2763 2764 2765
3 2766 2767 2768
3 2769 2770 2771
3 2772 2773 2774
3 2775 2776 2777
3 2778 2779 2780
3 2781 2782 2783
3 2784 2785 2786
3 2787 2788 2789
3 2790 2791 2792
3 2793 2794 2795
3 2796 2797 2798
3 2799 2800 2801
3 2802 2803 2804
3 2805 2806 2807
3 2808 2809 2810
3 2811 2812 2813
3 2814 2815 2816
3 2817 2818 2819
3 2820 2821 2822
3 2823 2824 2825
3 2826 2827 2828
3 2829 2830 2831
3 2832 2833 2834
3 2835 2836 2837
3 2838 2839 2840
3 2841 2842 2843
3 2844 2845 2846
3 2847 2848 2849
3 2850 2851 2852
3 2853 2854 2855
3 2856 2857 2858
3 2859 2860 2861
3 2862 2863 2864
3 2865 2866 2867
3 2868 2869 2870
3 2871 2872 2873
3 2874 2875 2876
3 2877 2878 2879
3 2880 2881 2882
3 2883 2884 2885
3 2886 2887 2888
3 2889 2890 2891
3 2892 2893 2894
3 2895 2896 2897
3 2898 2899 2900
3 2901 2902 2903
3 2904 2905 2906
3 2907 2908 2909
3 2910 2911 2912
3 2913 2914 2915
3 2916 2917 2918
3 2919 2920 2921
3 2922 2923 2924
3 2925 2926 2927
3 2928 2929 2930
3 2931 2932 2933
3 2934 2935 2936
3 2937 2938 2939
3 2940 2941 2942
3 2943 2944 2945
3 2946 2947 2948
3 2949 2950 2951
3 2952 2953 2954
3 2955 2956 2957
3 2958 2959 2960
3 2961 2962 2963
3 2964 2965 2966
3 2967 2968 2969
3 2970 2971 2972
3 2973 2974 2975
3 2976 2977 2978
3 2979 2980 2981
3 2982 2983 2984
3 2985 2986 2987
3 2988 2989 2990
3 2991 2992 2993
3 2994 2995 2996
3 2997 2998 2999
3 3000 3001 3002
3 3003 3004 3005
3 3006 3007 3008
3 3009 3010 3011
3 3012 3013 3014
3 3015 3016 3017
3 3018 3019 3020
3 3021 3022 3023
3 3024 3025 3026
3 3027 3028 3029
3 3030 3031 3032
3 3033 3034 3035
3 3036 3037 3038
3 3039 3040 3041
3 3042 3043 3044
3 3045 3046 3047
3 3048 3049 3050
3 3051 3052 3053
3 3054 3055 3056
3 3057 3058 3059
3 3060 3061 3062
3 3063 3064 3065
3 3066 3067 3068
3 3069 3070 3071
3 3072 3073 3074
3 3075 3076 3077
3 3078 3079 3080
3 3081 3082 3083
3 3084 3085 3086
3 3087 3088 3089
3 3090 3091 3092
3 3093 3094 3095
3 3096 3097 3098
3 3099 3100 3101
3 3102 3103 3104
3 3105 3106 3107
3 3108 3109 3110
3 3111 3112 3113
3 3114 3115 3116
3 3117 3118 3119
3 3120 3121 3122
3 3123 3124 3125
3 3126 3127 3128
3 3129 3130 3131
3 3132 3133 3134
3 3135 3136 3137
3 3138 3139 3140
3 3141 3142 3143
3 3144 3145 3146
3 3147 3148 3149
3 3150 3151 3152
3 3153 3154 3155
3 3156 3157 3158
3 3159 3160 3161
3 3162 3163 3164
3 3165 3166 3167
3 3168 3169 3170
3 3171 3172 3173
3 3174 3175 3176
3 3177 3178 3179
3 3180 3181 3182
3 3183 3184 3185
3 3186 3187 3188
3 3189 3190 3191
3 3192 3193 3194
3 3195 3196 3197
3 3198 3199 3200
3 3201 3202 3203
3 3204 3205 3206
3 3207 3208 3209
3 3210 3211 3212
3 3213 3214 3215
3 3216 3217 3218
3 3219 3220 3221
3 3222 3223 3224
3 3225 3226 3227
3 3228 3229 3230
3 3231 3232 3233
3 3234 3235 3236
3 3237 3238 3239
3 3240 3241 3242
3 3243 3244 3245
3 3246 3247 3248
3 3249 3250 3251
3 3252 3253 3254
3 3255 3256 3257
3 3258 3259 3260
3 3261 3262 3263
3 3264 3265 3266
3 3267 3268 3269
3 3270 3271 3272
3 3273 3274 3275
3 3276 3277 3278
3 3279 3280 3281
3 3282 3283 3284
3 3285 3286 3287
3 3288 3289 3290
3 3291 3292 3293
3 3294 3295 3296
3 3297 3298 3299
3 3300 3301 3302
3 3303 3304 3305
3 3306 3307 3308
3 3309 3310 3311
3 3312 3313 3314
3 3315 3316 3317
3 3318 3319 3320
3 3321 3322 3323
3 3324 3325 3326
3 3327 3328 3329
3 3330 3331 3332
3 3333 3334 3335
3 3336 3337 3338
3 3339 3340 3341
3 3342 3343 3344
3 3345 3346 3347
3 3348 3349 3350
3 3351 3352 3353
3 3354 3355 3356
3 3357 3358 3359
3 3360 3361 3362
3 3363 3364 3365
3 3366 3367 3368
3 3369 3370 3371
3 3372 3373 3374
3 3375 3376 3377
3 3378 3379 3380
3 3381 3382 3383
3 3384 3385 3386
3 3387 3388 3389
3 3390 3391 3392
3 3393 3394 3395
3 3396 3397 3398
3 3399 3400 3401
3 3402 3403 3404
3 3405 3406 3407
3 3408 3409 3410
3 3411 3412 3413
3 3414 3415 3416
3 3417 3418 3419
3 3420 3421 3422
3 3423 3424 3425
3 3426 3427 3428
3 3429 3430 3431
3 3432 3433 3434
3 3435 3436 3437
3 3438 3439 3440
3 3441 3442 3443
3 3444 3445 3446
3 3447 3448 3449
3 3450 3451 3452
3 3453 3454 3455
3 3456 3457 3458
3 3459 3460 3461
3 3462 3463 3464
3 3465 3466 3467
3 3468 3469 3470
3 3471 3472 3473
3 3474 3475 3476
3 3477 3478 3479
3 3480 3481 3482
3 3483 3484 3485
3 3486 3487 3488
3 3489 3490 3491
3 3492 3493 3494
3 3495 3496 3497
3 3498 3499 3500
3 3501 3502 3503
3 3504 3505 3506
3 3507 3508 3509
3 3510 3511 3512
3 3513 3514 3515
3 3516 3517 3518
3 3519 3520 3521
3 3522 3523 3524
3 3525 3526 3527
3 3528 3529 3530
3 3531 3532 3533
3 3534 3535 3536
3 3537 3538 3539
3 3540 3541 3542
3 3543 3544 3545
3 3546 3547 3548
3 3549 3550 3551
3 3552 3553 3554
3 3555 3556 3557
3 3558 3559 3560
3 3561 3562 3563
3 3564 3565 3566
3 3567 3568 3569
3 3570 3571 3572
3 3573 3574 3575
3 3576 3577 3578
3 3579 3580 3581
3 3582 3583 3584
3 3585 3586 3587
3 3588 3589 3590
3 3591 3592 3593
3 3594 3595 3596
3 3597 3598 3599
3 3600 3601 3602
3 3603 3604 3605
3 3606 3607 3608
3 3609 3610 3611
3 3612 3613 3614
3 3615 3616 3617
3 3618 3619 3620
3 3621 3622 3623
3 3624 3625 3626
3 3627 3628 3629
3 3630 3631 3632
3 3633 3634 3635
3 3636 3637 3638
3 3639 3640 3641
3 3642 3643 3644
3 3645 3646 3647
3 3648 3649 3650
3 3651 3652 3653
3 3654 3655 3656
3 3657 3658 3659
3 3660 3661 3662
3 3663 3664 3665
3 3666 3667 3668
3 3669 3670 3671
3 3672 3673 3674
3 3675 3676 3677
3 3678 3679 3680
3 3681 3682 3683
3 3684 3685 3686
3 3687 3688 3689
3 3690 3691 3692
3 3693 3694 3695
3 3696 3697 3698
3 3699 3700 3701
3 3702 3703 3704
3 3705 3706 3707
3 3708 3709 3710
3 3711 3712 3713
3 3714 3715 3716
3 3717 3718 3719
3 3720 3721 3722
3 3723 3724 3725
3 3726 3727 3728
3 3729 3730 3731
3 3732 3733 3734
3 3735 3736 3737
3 3738 3739 3740
3 3741 3742 3743
3 3744 3745 3746
3 3747 3748 3749
3 3750 3751 3752
3 3753 3754 3755
3 3756 3757 3758
3 3759 3760 3761
3 3762 3763 3764
3 3765 3766 3767
3 3768 3769 3770
3 3771 3772 3773
3 3774 3775 3776
3 3777 3778 3779
3 3780 3781 3782
3 3783 3784 3785
3 3786 3787 3788
3 3789 3790 3791
3 3792 3793 3794
3 3795 3796 3797
3 3798 3799 3800
3 3801 3802 3803
3 3804 3805 3806
3 3807 3808 3809
3 3810 3811 3812
3 3813 3814 3815
3 3816 3817 3818
3 3819 3820 3821
3 3822 3823 3824
3 3825 3826 3827
3 3828 3829 3830
3 3831 3832 3833
3 3834 3835 3836
3 3837 3838 3839
3 3840 3841 3842
3 3843 3844 3845
3 3846 3847 3848
3 3849 3850 3851
3 3852 3853 3854
3 3855 3856 3857
3 3858 3859 3860
3 3861 3862 3863
3 3864 3865 3866
3 3867 3868 3869
3 3870 3871 3872
3 3873 3874 3875
3 3876 3877 3878
3 3879 3880 3881
3 3882 3883 3884
3 3885 3886 3887
3 3888 3889 3890
3 3891 3892 3893
3 3894 3895 3896
3 3897 3898 3899
3 3900 3901 3902
3 3903 3904 3905
3 3906 3907 3908
3 3909 3910 3911
3 3912 3913 3914
3 3915 3916 3917
3 3918 3919 3920
3 3921 3922 3923
3 3924 3925 3926
3 3927 3928 3929
3 3930 3931 3932
3 3933 3934 3935
3 3936 3937 3938
3 3939 3940 3941
3 3942 3943 3944
3 3945 3946 3947
3 3948 3949 3950
3 3951 3952 3953
3 3954 3955 3956
3 3957 3958 3959
3 3960 3961 3962
3 3963 3964 3965
3 3966 3967 3968
3 3969 3970 3971
3 3972 3973 3974
3 3975 3976 3977
3 3978 3979 3980
3 3981 3982 3983
3 3984 3985 3986
3 3987 3988 3989
3 3990 3991 3992
3 3993 3994 3995
3 3996 3997 3998
3 3999 4000 4001
3 4002 4003 4004
3 4005 4006 4007
3 4008 4009 4010
3 4011 4012 4013
3 4014 4015 4016
3 4017 4018 4019
3 4020 4021 4022
3 4023 4024 4025
3 4026 4027 4028
3 4029 4030 4031
3 4032 4033 4034
3 4035 4036 4037
3 4038 4039 4040
3 4041 4042 4043
3 4044 4045 4046
3 4047 4048 4049
3 4050 4051 4052
3 4053 4054 4055
3 4056 4057 4058
3 4059 4060 4061
3 4062 4063 4064
3 4065 4066 4067
3 4068 4069 4070
3 4071 4072 4073
3 4074 4075 4076
3 4077 4078 4079
3 4080 4081 4082
3 4083 4084 4085
3 4086 4087 4088
3 4089 4090 4091
3 4092 4093 4094
3 4095 4096 4097
3 4098 4099 4100
3 4101 4102 4103
3 4104 4105 4106
3 4107 4108 4109
3 4110 4111 4112
3 4113 4114 4115
3 4116 4117 4118
3 4119 4120 4121
3 4122 4123 4124
3 4125 4126 4127
3 4128 4129 4130
3 4131 4132 4133
3 4134 4135 4136
3 4137 4138 4139
3 4140 4141 4142
3 4143 4144 4145
3 4146 4147 4148
3 4149 4150 4151
3 4152 4153 4154
3 4155 4156 4157
3 4158 4159 4160
3 4161 4162 4163
3 4164 4165 4166
3 4167 4168 4169
3 4170 4171 4172
3 4173 4174 4175
3 4176 4177 4178
3 4179 4180 4181
3 4182 4183 4184
3 4185 4186 4187
3 4188 4189 4190
3 4191 4192 4193
3 4194 4195 4196
3 4197 4198 4199
3 4200 4201 4202
3 4203 4204 4205
3 4206 4207 4208
3 4209 4210 4211
3 4212 4213 4214
3 4215 4216 4217
3 4218 4219 4220
3 4221 4222 4223
3 4224 4225 4226
3 4227 4228 4229
3 4230 4231 4232
3 4233 4234 4235
3 4236 4237 4238
3 4239 4240 4241
3 4242 4243 4244
3 4245 4246 4247
3 4248 4249 4250
3 4251 4252 4253
3 4254 4255 4256
3 4257 4258 4259
3 4260 4261 4262
3 4263 4264 4265
3 4266 4267 4268
3 4269 4270 4271
3 4272 4273 4274
3 4275 4276 4277
3 4278 4279 4280
3 4281 4282 4283
3 4284 4285 4286
3 4287 4288 4289
3 4290 4291 4292
3 4293 4294 4295
3 4296 4297 4298
3 4299 4300 4301
3 4302 4303 4304
3 4305 4306 4307
3 4308 4309 4310
3 4311 4312 4313
3 4314 4315 4316
3 4317 4318 4319
3 4320 4321 4322
3 4323 4324 4325
3 4326 4327 4328
3 4329 4330 4331
3 4332 4333 4334
3 4335 4336 4337
3 4338 4339 4340
3 4341 4342 4343
3 4344 4345 4346
3 4347 4348 4349
3 4350 4351 4352
3 4353 4354 4355
3 4356 4357 4358
3 4359 4360 4361
3 4362 4363 4364
3 4365 4366 4367
3 4368 4369 4370
3 4371 4372 4373
3 4374 4375 4376
3 4377 4378 4379
3 4380 4381 4382
3 4383 4384 4385
3 4386 4387 4388
3 4389 4390 4391
3 4392 4393 4394
3 4395 4396 4397
3 4398 4399 4400
3 4401 4402 4403
3 4404 4405 4406
3 4407 4408 4409
3 4410 4411 4412
3 4413 4414 4415
3 4416 4417 4418
3 4419 4420 4421
3 4422 4423 4424
3 4425 4426 4427
3 4428 4429 4430
3 4431 4432 4433
3 4434 4435 4436
3 4437 4438 4439
3 4440 4441 4442
3 4443 4444 4445
3 4446 4447 4448
3 4449 4450 4451
3 4452 4453 4454
3 4455 4456 4457
3 4458 4459 4460
3 4461 4462 4463
3 4464 4465 4466
3 4467 4468 4469
3 4470 4471 4472
3 4473 4474 4475
3 4476 4477 4478
3 4479 4480 4481
3 4482 4483 4484
3 4485 4486 4487
3 4488 4489 4490
3 4491 4492 4493
3 4494 4495 4496
3 4497 4498 4499
3 4500 4501 4502
3 4503 4504 4505
3 4506 4507 4508
3 4509 4510 4511
3 4512 4513 4514
3 4515 4516 4517
3 4518 4519 4520
3 4521 4522 4523
3 4524 4525 4526
3 4527 4528 4529
3 4530 4531 4532
3 4533 4534 4535
3 4536 4537 4538
3 4539 4540 4541
3 4542 4543 4544
3 4545 4546 4547
3 4548 4549 4550
3 4551 4552 4553
3 4554 4555 4556
3 4557 4558 4559
3 4560 4561 4562
3 4563 4564 4565
3 4566 4567 4568
3 4569 4570 4571
3 4572 4573 4574
3 4575 4576 4577
3 4578 4579 4580
3 4581 4582 4583
3 4584 4585 4586
3 4587 4588 4589
3 4590 4591 4592
3 4593 4594 4595
3 4596 4597 4598
3 4599 4600 4601
3 4602 4603 4604
3 4605 4606 4607
3 4608 4609 4610
3 4611 4612 4613
3 4614 4615 4616
3 4617 4618 4619
3 4620 4621 4622
3 4623 4624 4625
3 4626 4627 4628
3 4629 4630 4631
3 4632 4633 4634
3 4635 4636 4637
3 4638 4639 4640
3 4641 4642 4643
3 4644 4645 4646
3 4647 4648 4649
3 4650 4651 4652
3 4653 4654 4655
3 4656 4657 4658
3 4659 4660 4661
3 4662 4663 4664
3 4665 4666 4667
3 4668 4669 4670
3 4671 4672 4673
3 4674 4675 4676
3 4677 4678 4679
3 4680 4681 4682
3 4683 4684 4685
3 4686 4687 4688
3 4689 4690 4691
3 4692 4693 4694
3 4695 4696 4697
3 4698 4699 4700
3 4701 4702 4703
3 4704 4705 4706
3 4707 4708 4709
3 4710 4711 4712
3 4713 4714 4715
3 4716 4717 4718
3 4719 4720 4721
3 4722 4723 4724
3 4725 4726 4727
3 4728 4729 4730
3 4731 4732 4733
3 4734 4735 4736
3 4737 4738 4739
3 4740 4741 4742
3 4743 4744 4745
3 4746 4747 4748
3 4749 4750 4751
3 4752 4753 4754
3 4755 4756 4757
3 4758 4759 4760
3 4761 4762 4763
3 4764 4765 4766
3 4767 4768 4769
3 4770 4771 4772
3 4773 4774 4775
3 4776 4777 4778
3 4779 4780 4781
3 4782 4783 4784
3 4785 4786 4787
3 4788 4789 4790
3 4791 4792 4793
3 4794 4795 4796
3 4797 4798 4799
3 4800 4801 4802
3 4803 4804 4805
3 4806 4807 4808
3 4809 4810 4811
3 4812 4813 4814
3 4815 4816 4817
3 4818 4819 4820
3 4821 4822 4823
3 4824 4825 4826
3 4827 4828 4829
3 4830 4831 4832
3 4833 4834 4835
3 4836 4837 4838
3 4839 4840 4841
3 4842 4843 4844
3 4845 4846 4847
CELL_TYPES 1616
5
5
5
5
5
5
5
5
5
5
5
5
5
5
5
5
5
5
5
5
5
5
5
5
5
5
5
5
5
5
5
5
5
5
5
5
5
5
5
5
5
5
5
5
5
5
5
5
5
5
5
5
5
5
5
5
5
5
5
5
5
5
5
5
5
5
5
5
5
5
5
5
5
5
5
5
5
5
5
5
5
5
5
5
5
5
5
5
5
5
5
5
5
5
5
5
5
5
5
5
5
5
5
5
5
5
5
5
5
5
5
5
5
5
5
5
5
5
5
5
5
5
5
5
5
5
5
5
5
5
5
5
5
5
5
5
5
5
5
5
5
5
5
5
5
5
5
5
5
5
5
5
5
5
5
5
5
5
5
5
5
5
5
5
5
5
5
5
5
5
5
5
5
5
5
5
5
5
5
5
5
5
5
5
5
5
5
5
5
5
5
5
5
5
5
5
5
5
5
5
5
5
5
5
5
5
5
5
5
5
5
5
5
5
5
5
5
5
5
5
5
5
5
5
5
5
5
5
5
5
5
5
5
5
5
5
5
5
5
5
5
5
5
5
5
5
5
5
5
5
5
5
5
5
5
5
5
5
5
5
5
5
5
5
5
5
5
5
5
5
5
5
5
5
5
5
5
5
5
5
5
5
5
5
5
5
5
5
5
5
5
5
5
5
5
5
5
5
5
5
5
5
5
5
5
5
5
5
5
5
5
5
5
5
5
5
5
5
5
5
5
5
5
5
5
5
5
5
5
5
5
5
5
5
5
5
5
5
5
5
5
5
5
5
5
5
5
5
5
5
5
5
5
5
5
5
5
5
5
5
5
5
5
5
5
5
5
5
5
5
5
5
5
5
5
5
5
5
5
5
5
5
5
5
5
5
5
5
5
5
5
5
5
5
5
5
5
5
5
5
5
5
5
5
5
5
5
5
5
5
5
5
5
5
5
5
5
5
5
5
5
5
5
5
5
5
5
5
5
5
5
5
5
5
5
5
5
5
5
5
5
5
5
5
5
5
5
5
5
5
5
5
5
5
5
5
5
5
5
5
5
5
5
5
5
5
5
5
5
5
5
5
5
5
5
5
5
5
5
5
5
5
5
5
5
5
5
5
5
5
5
5
5
5
5
5
5
5
5
5
5
5
5
5
5
5
5
5
5
5
5
5
5
5
5
5
5
5
5
5
5
5
5
5
5
5
5
5
5
5
5
5
5
5
5
5
5
5
5
5
5
5
5
5
5
5
5
5
5
5
5
5
5
5
5
5
5
5
5
5
5
5
5
5
5
5
5
5
5
5
5
5
5
5
5
5
5
5
5
5
5
5
5
5
5
5
5
5
5
5
5
5
5
5
5
5
5
5
5
5
5
5
5
5
5
5
5
5
5
5
5
5
5
5
5
5
5
5
5
5
5
5
5
5
5
5
5
5
5
5
5
5
5
5
5
5
5
5
5
5
5
5
5
5
5
5
5
5
5
5
5
5
5
5
5
5
5
5
5
5
5
5
5
5
5
5
5
5
5
5
5
5
5
5
5
5
5
5
5
5
5
5
5
5
5
5
5
5
5
5
5
5
5
5
5
5
5
5
5
5
5
5
5
5
5
5
5
5
5
5
5
5
5
5
5
5
5
5
5
5
5
5
5
5
5
5
5
5
5
5
5
5
5
5
5
5
5
5
5
5
5
5
5
5
5
5
5
5
5
5
5
5
5
5
5
5
5
5
5
5
5
5
5
5
5
5
5
5
5
5
5
5
5
5
5
5
5
5
5
5
5
5
5
5
5
5
5
5
5
5
5
5
5
5
5
5
5
5
5
5
5
5
5
5
5
5
5
5
5
5
5
5
5
5
5
5
5
5
5
5
5
5
5
5
5
5
5
5
5
5
5
5
5
5
5
5
5
5
5
5
5
5
5
5
5
5
5
5
5
5
5
5
5
5
5
5
5
5
5
5
5
5
5
5
5
5
5
5
5
5
5
5
5
5
5
5
5
5
5
5
5
5
5
5
5
5
5
5
5
5
5
5
5
5
5
5
5
5
5
5
5
5
5
5
5
5
5
5
5
5
5
5
5
5
5
5
5
5
5
5
5
5
5
5
5
5
5
5
5
5
5
5
5
5
5
5
5
5
5
5
5
5
5
5
5
5
5
5
5
5
5
5
5
5
5
5
5
5
5
5
5
5
5
5
5
5
5
5
5
5
5
5
5
5
5
5
5
5
5
5
5
5
5
5
5
5
5
5
5
5
5
5
5
5
5
5
5
5
5
5
5
5
5
5
5
5
5
5
5
5
5
5
5
5
5
5
5
5
5
5
5
5
5
5
5
5
5
5
5
5
5
5
5
5
5
5
5
5
5
5
5
5
5
5
5
5
5
5
5
5
5
5
5
5
5
5
5
5
5
5
5
5
5
5
5
5
5
5
5
5
5
5
5
5
5
5
5
5
5
5
5
5
5
5
5
5
5
5
5
5
5
5
5
5
5
5
5
5
5
5
5
5
5
5
5
5
5
5
5
5
5
5
5
5
5
5
5
5
5
5
5
5
5
5
5
5
5
5
5
5
5
5
5
5
5
5
5
5
5
5
5
5
5
5
5
5
5
5
5
5
5
5
5
5
5
5
5
5
5
5
5
5
5
5
5
5
5
5
5
5
5
5
5
5
5
5
5
5
5
5
5
5
5
5
5
5
5
5
5
5
5
5
5
5
5
5
5
5
5
5
5
5
5
5
5
5
5
5
5
5
5
5
5
5
5
5
5
5
5
5
5
5
5
5
5
5
5
5
5
5
5
5
5
5
5
5
5
5
5
5
5
5
5
5
5
5
5
5
5
5
5
5
5
5
5
5
5
5
5
5
5
5
5
5
5
5
5
5
5
5
5
5
5
5
5
5
5
5
5
5
5
5
5
5
5
5
5
5
5
5
5
5
5
5
5
5
5
5
5
5
5
5
5
5
5
5
5
5
5
5
5
5
5
5
5
5
5
5
5
5
5
5
5
5
5
5
5
5
5
5
5
5
5
5
5
5
5
5
5
5
5
5
5
5
5
5
5
5
5
5
5
5
5
5
5
5
5
5
5
5
5
5
5
5
5
5
5
5
5
5
5
5
5
5
5
5
5
5
5
5
5
5
5
5
5
5
5
5
5
5
5
5
5
5
5
5
5
5
5
5
5
5
5
5
5
5
5
5
5
5
5
5
5
5
5
5
5
5
5
5
5
5
5
5
5
5
5
5
5
5
5
5
5
5
5
5
5
5
5
5
5
5
5
5
5
5
5
5
5
5
5
5
5
5
5
5
5
5
5
5
5
5
5
5
5
5
5
5
5
5
5
5
5
5
5
5
5
5
5
5
5
5
5
5
5
5
5
5
5
5
5
5
5
5
5
5
5
5
5
5
5
5
5
5
5
5
5
5
5
5
5
5
5
5
5
5
5
5
5
5
5
5
5
5
5
5
5
5
5
5
5
5
5
5
5
5
5
5
5
5
5
5
5
5
5
5
5
5
5
5
5
5
5
5
5
5
5
5
5
5
5
5
5
5
5
5
5
5
5
5
5
5
5
5
5
5
5
5
5
5
5
5
5
5
5
5
5
5
5
5
5
5
5
5
5
5
5
5
5
5
5
5
5
5
5
5
5
5
5
5
5
5
5
5
5
5
CELL_DATA 1616
SCALARS pressure float 1
LOOKUP_TABLE default
-0.000000
-0.000000
-0.000000
-0.000000
-0.000000
-0.000000
-0.000000
-0.000000
-0.000000
-0.000000
-0.000000
-0.000000
-0.000000
-0.000000
-0.000000
-0.000000
-0.000000
-0.000000
-0.000000
-0.000000
-0.000000
-0.000000
-0.000000
-0.000000
-0.000000
-0.000000
-0.000000
-0.000000
-0.000000
-0.000000
-0.000000
-0.000000
-0.000000
-0.000000
-0.000000
-0.000000
-0.000000
-0.000000
-0.000000
-0.000000
-0.000000
-0.000000
-0.000000
-0.000000
-0.000000
-0.000000
-0.000000
-0.000000
-0.000000
-0.000000
-0.000000
-0.000000
-0.000000
-0.000000
-0.000000
-0.000000
-0.000000
-0.000000
-0.000000
-0.000000
-0.000000
-0.000000
-0.000000
-0.000000
-0.000000
-0.000000
-0.000000
-0.000000
-0.000000
-0.000000
-0.000000
-0.000000
-0.000000
-0.000000
-0.000000
-0.000000
-0.000000
-0.000000
-0.000000
-0.000000
-0.000000
-0.000000
-0.000000
-0.000000
-0.000000
-0.000000
-0.000000
-0.000000
-0.000000
-0.000000
-0.000000
-0.000000
-0.000000
-0.000000
-0.000000
-0.000000
0.000000
0.000000
0.000000
0.000000
0.000000
0.000000
0.000000
0.000000
0.000000
-0.000000
-0.000000
-0.000000
0.000000
0.000000
0.000000
0.000000
-0.000000
-0.000000
-0.000000
-0.000000
-0.000000
-0.000000
-0.000000
-0.000000
-0.000000
-0.000000
-0.000000
-0.000000
-0.000000
0.000000
0.000000
0.000000
2216.340979
-0.000000
-0.000000
54.585510
-0.000000
-0.000000
-0.000000
-0.000000
-0.000000
-0.000000
-0.000000
-0.000000
86.549349
-0.000000
37.551875
-0.000000
-0.000000
-0.000000
-0.000000
-0.000000
-0.000000
-0.000000
-0.000000
-0.000000
0.000000
0.000000
0.000000
0.000000
-0.000000
-0.000000
-0.000000
-0.000000
-0.000000
-0.000000
-0.000000
-0.000000
-0.000000
-0.000000
-0.000000
-0.000000
-0.000000
-0.000000
-0.000000
-0.000000
-0.000000
8.656722
-0.000000
-0.000000
-0.000000
-0.000000
-0.000000
-0.000000
-0.000000
-0.000000
-0.000000
-0.000000
-0.000000
-0.000000
-0.000000
-0.000000
-0.000000
-0.000000
-0.000000
-0.000000
-0.000000
-0.000000
-0.000000
-0.000000
-0.000000
-0.000000
-0.000000
-0.000000
18.054216
-0.000000
174.766793
15.562662
-0.000000
-0.000000
-0.000000
-0.000000
-0.000000
-0.000000
-0.000000
-0.000000
-0.000000
-0.000000
-0.000000
-0.000000
-0.000000
-0.000000
-0.000000
-0.000000
-0.000000
-0.000000
-0.000000
-0.000000
-0.000000
-0.000000
-0.000000
-0.000000
-0.000000
-0.000000
-0.000000
-0.000000
-0.000000
-0.000000
-0.000000
-0.000000
-0.000000
-0.000000
-0.000000
-0.000000
-0.000000
-0.000000
-0.000000
-0.000000
-0.000000
-0.000000
-0.000000
-0.000000
-0.000000
-0.000000
-0.000000
-0.000000
-0.000000
-0.000000
-0.000000
-0.000000
-0.000000
-0.000000
-0.000000
-0.000000
-0.000000
-0.000000
-0.000000
-0.000000
-0.000000
-0.000000
-0.000000
-0.000000
-0.000000
-0.000000
-0.000000
-0.000000
-0.000000
-0.000000
-0.000000
-0.000000
-0.000000
-0.000000
-0.000000
-0.000000
-0.000000
-0.000000
-0.000000
-0.000000
-0.000000
-0.000000
-0.000000
-0.000000
-0.000000
-0.000000
-0.000000
-0.000000
-0.000000
-0.000000
-0.000000
-0.000000
-0.000000
-0.000000
-0.000000
-0.000000
-0.000000
-0.000000
-0.000000
-0.000000
-0.000000
-0.000000
-0.000000
-0.000000
-0.000000
-0.000000
-0.000000
-0.000000
-0.000000
-0.000000
-0.000000
-0.000000
-0.000000
-0.000000
-0.000000
-0.000000
-0.000000
2.726577
1.696631
-0.000000
2.775060
-0.000000
65.373515
10.163546
5.840621
5.747527
3.970195
-0.000000
-0.000000
-0.000000
-0.000000
-0.000000
-0.000000
1.980798
-0.000000
-0.000000
-0.000000
-0.000000
-0.000000
-0.000000
-0.000000
2.098291
-0.000000
-0.000000
-0.000000
-0.000000
-0.000000
-0.000000
-0.000000
0.000000
-0.000000
0.000000
-0.000000
-0.000000
-0.000000
0.000000
-0.000000
-0.000000
-0.000000
-0.000000
0.000000
0.000000
-0.000000
0.000000
-0.000000
-0.000000
-0.000000
-0.000000
-0.000000
-0.000000
-0.000000
-0.000000
-0.000000
-0.000000
-0.000000
-0.000000
-0.000000
-0.000000
-0.000000
-0.000000
18.570647
-0.000000
-0.000000
-0.000000
-0.000000
-0.000000
-0.000000
-0.000000
-0.000000
-0.000000
-0.000000
-0.000000
-0.000000
-0.000000
-0.000000
-0.000000
58.572844
19.319190
6.772230
37.865914
-0.000000
-0.000000
-0.000000
7.942810
31.140043
6.565247
27.656270
-0.000000
-0.000000
-0.000000
-0.000000
-0.000000
6.230738
4.582026
-0.000000
10.145483
4.672452
9.043715
5.452402
62.421785
9.525565
29.781260
2.927940
4.488672
-0.000000
32.913613
-0.000000
6.830409
5.725569
6.405475
29.189568
31.544441
6.269937
-0.000000
5.912903
5.864276
66.593927
7.170360
-0.000000
26.838568
-0.000000
-0.000000
6.100055
-0.000000
0.000000
0.000000
-0.000000
0.000000
-0.000000
-0.000000
-0.000000
0.000000
-0.000000
-0.000000
-0.000000
-0.000000
0.000000
0.000000
-0.000000
0.000000
-0.000000
-0.000000
-0.000000
-0.000000
-0.000000
-0.000000
-0.000000
-0.000000
-0.000000
-0.000000
-0.000000
-0.000000
-0.000000
-0.000000
-0.000000
-0.000000
-0.000000
-0.000000
-0.000000
-0.000000
-0.000000
-0.000000
-0.000000
-0.000000
-0.000000
-0.000000
-0.000000
-0.000000
-0.000000
-0.000000
-0.000000
-0.000000
-0.000000
-0.000000
-0.000000
-0.000000
-0.000000
-0.000000
-0.000000
-0.000000
-0.000000
-0.000000
-0.000000
-0.000000
0.000000
0.000000
0.000000
0.000000
0.000000
0.000000
0.000000
0.000000
0.000000
0.000000
0.000000
0.000000
-0.000000
-0.000000
-0.000000
-0.000000
0.000000
0.000000
0.000000
0.000000
-0.000000
-0.000000
-0.000000
-0.000000
-0.000000
-0.000000
-0.000000
-0.000000
-0.000000
-0.000000
-0.000000
-0.000000
-0.000000
-0.000000
-0.000000
-0.000000
-0.000000
-0.000000
-0.000000
-0.000000
-0.000000
-0.000000
-0.000000
-0.000000
-0.000000
-0.000000
-0.000000
-0.000000
-0.000000
-0.000000
-0.000000
-0.000000
-0.000000
-0.000000
-0.000000
-0.000000
2.093481
-0.000000
-0.000000
-0.000000
-0.000000
-0.000000
-0.000000
-0.000000
-0.000000
-0.000000
-0.000000
-0.000000
-0.000000
1.933881
7.945564
-0.000000
15.407208
-0.000000
-0.000000
23.401004
195.325432
3.853608
-0.000000
-0.000000
16.361457
25.708936
-0.000000
111.944312
21.412938
15.953050
3.291810
6.589806
-0.000000
-0.000000
-0.000000
32.124044
-0.000000
-0.000000
-0.000000
-0.000000
83.620518
3.272982
-0.000000
19.249036
0.000000
-0.000000
-0.000000
-0.000000
-0.000000
-0.000000
-0.000000
-0.000000
-0.000000
-0.000000
-0.000000
-0.000000
-0.000000
-0.000000
-0.000000
-0.000000
-0.000000
-0.000000
-0.000000
-0.000000
-0.000000
-0.000000
-0.000000
-0.000000
-0.000000
-0.000000
-0.000000
-0.000000
-0.000000
-0.000000
-0.000000
-0.000000
-0.000000
-0.000000
-0.000000
-0.000000
-0.000000
-0.000000
-0.000000
-0.000000
-0.000000
-0.000000
-0.000000
-0.000000
-0.000000
-0.000000
-0.000000
-0.000000
-0.000000
-0.000000
-0.000000
-0.000000
-0.000000
-0.000000
-0.000000
-0.000000
-0.000000
-0.000000
-0.000000
-0.000000
-0.000000
-0.000000
-0.000000
-0.000000
-0.000000
-0.000000
-0.000000
-0.000000
-0.000000
-0.000000
-0.000000
-0.000000
-0.000000
-0.000000
-0.000000
-0.000000
-0.000000
-0.000000
-0.000000
-0.000000
15.156075
2.432310
-0.000000
2.830433
-0.000000
-0.000000
-0.000000
-0.000000
13.553646
-0.000000
-0.000000
-0.000000
14.632970
2.456143
12.219893
7.762307
-0.000000
-0.000000
-0.000000
-0.000000
-0.000000
-0.000000
-0.000000
-0.000000
-0.000000
-0.000000
-0.000000
-0.000000
-0.000000
-0.000000
-0.000000
-0.000000
-0.000000
-0.000000
-0.000000
-0.000000
-0.000000
-0.000000
-0.000000
-0.000000
-0.000000
-0.000000
-0.000000
-0.000000
-0.000000
-0.000000
-0.000000
-0.000000
-0.000000
-0.000000
-0.000000
-0.000000
-0.000000
-0.000000
-0.000000
-0.000000
-0.000000
-0.000000
-0.000000
-0.000000
-0.000000
-0.000000
-0.000000
-0.000000
-0.000000
-0.000000
-0.000000
-0.000000
-0.000000
-0.000000
-0.000000
-0.000000
-0.000000
-0.000000
-0.000000
-0.000000
-0.000000
-0.000000
-0.000000
-0.000000
50.299737
-0.000000
-0.000000
-0.000000
5.388129
-0.000000
-0.000000
5.155700
-0.000000
19.634950
-0.000000
-0.000000
112.913135
-0.000000
-0.000000
-0.000000
-0.000000
-0.000000
-0.000000
-0.000000
-0.000000
-0.000000
-0.000000
-0.000000
-0.000000
-0.000000
-0.000000
-0.000000
-0.000000
-0.000000
-0.000000
-0.000000
-0.000000
-0.000000
-0.000000
-0.000000
-0.000000
-0.000000
-0.000000
-0.000000
-0.000000
-0.000000
-0.000000
-0.000000
-0.000000
-0.000000
-0.000000
-0.000000
-0.000000
-0.000000
-0.000000
-0.000000
-0.000000
-0.000000
-0.000000
-0.000000
-0.000000
-0.000000
-0.000000
-0.000000
-0.000000
-0.000000
-0.000000
-0.000000
30.007784
9.473306
10.487625
4.250999
-0.000000
17.448704
20.224813
-0.000000
35.596153
3.216539
-0.000000
17.804279
30.869439
393.511809
-0.000000
22.262342
3.880492
3.909838
3.958903
-0.000000
41.990178
18.999168
-0.000000
8.816760
-0.000000
18.007246
-0.000000
-0.000000
-0.000000
4.220796
-0.000000
29.639097
2.994750
-0.000000
-0.000000
-0.000000
-0.000000
2.887939
-0.000000
-0.000000
2.862122
-0.000000
-0.000000
-0.000000
-0.000000
-0.000000
-0.000000
-0.000000
-0.000000
-0.000000
-0.000000
-0.000000
-0.000000
-0.000000
0.000000
0.000000
-0.000000
0.000000
0.000000
0.000000
0.000000
0.000000
0.000000
0.000000
0.000000
-0.000000
-0.000000
-0.000000
-0.000000
-0.000000
-0.000000
-0.000000
-0.000000
-0.000000
-0.000000
-0.000000
-0.000000
-0.000000
-0.000000
-0.000000
-0.000000
-0.000000
-0.000000
-0.000000
-0.000000
-0.000000
-0.000000
-0.000000
-0.000000
-0.000000
-0.000000
-0.000000
0.000000
0.000000
0.000000
0.000000
-0.000000
0.000000
0.000000
-0.000000
0.000000
0.000000
0.000000
0.000000
0.000000
-0.000000
-0.000000
-0.000000
0.000000
0.000000
0.000000
0.000000
-0.000000
-0.000000
-0.000000
-0.000000
-0.000000
-0.000000
-0.000000
-0.000000
-0.000000
-0.000000
-0.000000
-0.000000
-0.000000
2.810358
-0.000000
-0.000000
-0.000000
-0.000000
-0.000000
-0.000000
-0.000000
-0.000000
-0.000000
-0.000000
-0.000000
-0.000000
-0.000000
-0.000000
-0.000000
-0.000000
-0.000000
-0.000000
-0.000000
-0.000000
-0.000000
-0.000000
-0.000000
-0.000000
-0.000000
-0.000000
-0.000000
11.584297
-0.000000
-0.000000
-0.000000
-0.000000
-0.000000
-0.000000
-0.000000
-0.000000
-0.000000
66.870161
-0.000000
20.252466
32.339245
-0.000000
3.472942
7.171419
20.836523
17.104365
3.782863
3.608054
-0.000000
-0.000000
-0.000000
-0.000000
-0.000000
-0.000000
-0.000000
-0.000000
-0.000000
-0.000000
-0.000000
-0.000000
2.515129
-0.000000
-0.000000
6.525228
2.539785
19.207638
-0.000000
-0.000000
-0.000000
-0.000000
-0.000000
2.870687
1.554029
-0.000000
-0.000000
37.534118
12.880356
11.414541
15.440171
-0.000000
29.450968
0.895795
22.966541
3.184929
13.571912
27.899687
87.540568
22.093209
2.522382
14.481134
-0.000000
-0.000000
-0.000000
-0.000000
4.169660
41.915862
-0.000000
-0.000000
-0.000000
-0.000000
-0.000000
-0.000000
3.544528
-0.000000
-0.000000
-0.000000
14.057968
24.637270
2.687057
15.674098
23.190554
14.493373
19.505095
16.754847
-0.000000
-0.000000
-0.000000
-0.000000
2.336319
2.396119
-0.000000
12.922034
2.244680
-0.000000
-0.000000
-0.000000
431.003261
10.466579
2.430019
5.096815
-0.000000
-0.000000
-0.000000
-0.000000
-0.000000
-0.000000
-0.000000
-0.000000
-0.000000
-0.000000
-0.000000
-0.000000
-0.000000
-0.000000
-0.000000
-0.000000
-0.000000
-0.000000
-0.000000
-0.000000
-0.000000
-0.000000
-0.000000
-0.000000
-0.000000
-0.000000
-0.000000
-0.000000
-0.000000
-0.000000
-0.000000
-0.000000
-0.000000
-0.000000
-0.000000
-0.000000
-0.000000
-0.000000
-0.000000
-0.000000
-0.000000
-0.000000
-0.000000
-0.000000
-0.000000
-0.000000
-0.000000
-0.000000
-0.000000
-0.000000
-0.000000
-0.000000
-0.000000
-0.000000
-0.000000
-0.000000
-0.000000
-0.000000
-0.000000
-0.000000
-0.000000
-0.000000
-0.000000
-0.000000
-0.000000
-0.000000
-0.000000
-0.000000
-0.000000
-0.000000
-0.000000
-0.000000
-0.000000
-0.000000
-0.000000
-0.000000
-0.000000
-0.000000
-0.000000
2.836950
-0.000000
-0.000000
-0.000000
-0.000000
-0.000000
-0.000000
-0.000000
-0.000000
-0.000000
-0.000000
-0.000000
-0.000000
-0.000000
-0.000000
-0.000000
-0.000000
-0.000000
-0.000000
-0.000000
-0.000000
-0.000000
-0.000000
-0.000000
-0.000000
-0.000000
-0.000000
-0.000000
-0.000000
-0.000000
-0.000000
-0.000000
-0.000000
0.000000
-0.000000
-0.000000
-0.000000
-0.000000
-0.000000
-0.000000
-0.000000
-0.000000
-0.000000
-0.000000
-0.000000
-0.000000
-0.000000
-0.000000
-0.000000
-0.000000
-0.000000
-0.000000
-0.000000
-0.000000
-0.000000
-0.000000
-0.000000
-0.000000
-0.000000
-0.000000
-0.000000
-0.000000
-0.000000
-0.000000
-0.000000
-0.000000
-0.000000
-0.000000
-0.000000
-0.000000
-0.000000
-0.000000
-0.000000
-0.000000
-0.000000
-0.000000
-0.000000
-0.000000
-0.000000
-0.000000
-0.000000
-0.000000
-0.000000
-0.000000
-0.000000
-0.000000
-0.000000
-0.000000
-0.000000
-0.000000
-0.000000
-0.000000
-0.000000
-0.000000
-0.000000
-0.000000
-0.000000
-0.000000
-0.000000
-0.000000
-0.000000
-0.000000
-0.000000
-0.000000
-0.000000
-0.000000
-0.000000
-0.000000
-0.000000
-0.000000
-0.000000
-0.000000
-0.000000
-0.000000
-0.000000
-0.000000
-0.000000
-0.000000
-0.000000
-0.000000
-0.000000
-0.000000
-0.000000
-0.000000
-0.000000
-0.000000
-0.000000
-0.000000
-0.000000
-0.000000
-0.000000
-0.000000
-0.000000
-0.000000
-0.000000
-0.000000
-0.000000
-0.000000
-0.000000
-0.000000
-0.000000
-0.000000
-0.000000
-0.000000
-0.000000
-0.000000
-0.000000
-0.000000
-0.000000
-0.000000
-0.000000
-0.000000
-0.000000
-0.000000
-0.000000
-0.000000
-0.000000
-0.000000
-0.000000
-0.000000
-0.000000
-0.000000
-0.000000
-0.000000
-0.000000
-0.000000
-0.000000
-0.000000
-0.000000
-0.000000
-0.000000
-0.000000
-0.000000
-0.000000
-0.000000
-0.000000
-0.000000
-0.000000
-0.000000
-0.000000
-0.000000
-0.000000
-0.000000
-0.000000
-0.000000
-0.000000
-0.000000
-0.000000
-0.000000
-0.000000
-0.000000
-0.000000
-0.000000
-0.000000
-0.000000
-0.000000
-0.000000
-0.000000
-0.000000
-0.000000
-0.000000
-0.000000
-0.000000
-0.000000
1.958206
-0.000000
-0.000000
-0.000000
-0.000000
-0.000000
-0.000000
-0.000000
-0.000000
-0.000000
-0.000000
-0.000000
-0.000000
-0.000000
-0.000000
-0.000000
-0.000000
-0.000000
-0.000000
-0.000000
-0.000000
-0.000000
-0.000000
-0.000000
-0.000000
-0.000000
-0.000000
-0.000000
-0.000000
-0.000000
-0.000000
0.000000
-0.000000
-0.000000
-0.000000
-0.000000
-0.000000
0.000000
0.000000
0.000000
-0.000000
0.000000
0.000000
0.000000
-0.000000
-0.000000
0.000000
-0.000000
0.000000
-0.000000
-0.000000
-0.000000
-0.000000
-0.000000
-0.000000
-0.000000
0.000000
-0.000000
0.000000
0.000000
0.000000
0.000000
-0.000000
0.000000
0.000000
-0.000000
-0.000000
-0.000000
-0.000000
-0.000000
-0.000000
-0.000000
-0.000000
-0.000000
-0.000000
-0.000000
-0.000000
-0.000000
-0.000000
-0.000000
-0.000000
-0.000000
-0.000000
-0.000000
-0.000000
-0.000000
-0.000000
-0.000000
-0.000000
-0.000000
-0.000000
-0.000000
-0.000000
-0.000000
-0.000000
-0.000000
-0.000000
-0.000000
-0.000000
-0.000000
-0.000000
-0.000000
-0.000000
-0.000000
-0.000000
-0.000000
2.499337
-0.000000
-0.000000
2.402268
-0.000000
-0.000000
3.881255
2.618890
3.920651
2.536389
4.887203
-0.000000
-0.000000
-0.000000
-0.000000
-0.000000
-0.000000
-0.000000
-0.000000
-0.000000
-0.000000
-0.000000
-0.000000
-0.000000
-0.000000
-0.000000
11.354236
-0.000000
-0.000000
-0.000000
-0.000000
-0.000000
-0.000000
-0.000000
-0.000000
-0.000000
-0.000000
-0.000000
-0.000000
-0.000000
-0.000000
-0.000000
-0.000000
-0.000000
-0.000000
-0.000000
-0.000000
-0.000000
-0.000000
-0.000000
-0.000000
-0.000000
-0.000000
-0.000000
-0.000000
-0.000000
-0.000000
-0.000000
-0.000000
-0.000000
-0.000000
-0.000000
-0.000000
-0.000000
-0.000000
-0.000000
-0.000000
-0.000000
-0.000000
-0.000000
-0.000000
-0.000000
-0.000000
-0.000000
-0.000000
0.000000
0.000000
0.000000
0.000000
0.000000
-0.000000
-0.000000
-0.000000
0.000000
-0.000000
-0.000000
-0.000000
-0.000000
-0.000000
-0.000000
-0.000000
-0.000000
-0.000000
-0.000000
0.000000
-0.000000
0.000000
0.000000
0.000000
-0.000000
-0.000000
-0.000000
-0.000000
0.000000
0.000000
0.000000
0.000000
-0.000000
-0.000000
-0.000000
-0.000000
-0.000000
-0.000000
-0.000000
-0.000000
-0.000000
-0.000000
-0.000000
-0.000000
-0.000000
0.000000
-0.000000
0.000000
-0.000000
-0.000000
-0.000000
-0.000000
-0.000000
-0.000000
-0.000000
-0.000000
-0.000000
-0.000000
-0.000000
-0.000000
-0.000000
-0.000000
-0.000000
-0.000000
SCALARS shearstress float 1
LOOKUP_TABLE default
-0.000000
-0.000000
-0.000000
-0.000000
-0.000000
-0.000000
-0.000000
-0.000000
-0.000000
-0.000000
-0.000000
-0.000000
-0.000000
-0.000000
-0.000000
-0.000000
-0.000000
-0.000000
-0.000000
-0.000000
-0.000000
-0.000000
-0.000000
-0.000000
-0.000000
-0.000000
-0.000000
-0.000000
-0.000000
-0.000000
-0.000000
-0.000000
-0.000000
-0.000000
-0.000000
-0.000000
-0.000000
-0.000000
-0.000000
-0.000000
-0.000000
-0.000000
-0.000000
-0.000000
-0.000000
-0.000000
-0.000000
-0.000000
-0.000000
-0.000000
-0.000000
-0.000000
-0.000000
-0.000000
-0.000000
-0.000000
-0.000000
-0.000000
-0.000000
-0.000000
-0.000000
-0.000000
-0.000000
-0.000000
-0.000000
-0.000000
-0.000000
-0.000000
-0.000000
-0.000000
-0.000000
-0.000000
-0.000000
-0.000000
-0.000000
-0.000000
-0.000000
-0.000000
-0.000000
-0.000000
-0.000000
-0.000000
-0.000000
-0.000000
-0.000000
-0.000000
-0.000000
-0.000000
-0.000000
-0.000000
-0.000000
-0.000000
-0.000000
-0.000000
-0.000000
-0.000000
-0.000000
-0.000000
-0.000000
-0.000000
-0.000000
-0.000000
-0.000000
-0.000000
-0.000000
-0.000000
-0.000000
-0.000000
-0.000000
-0.000000
-0.000000
-0.000000
-0.000000
-0.000000
-0.000000
-0.000000
-0.000000
-0.000000
-0.000000
-0.000000
-0.000000
-0.000000
-0.000000
-0.000000
-0.000000
-0.000000
-0.000000
-0.000000
275.854378
-0.000000
-0.000000
4.434920
-0.000000
-0.000000
-0.000000
-0.000000
-0.000000
-0.000000
-0.000000
-0.000000
33.840120
-0.000000
8.218745
-0.000000
-0.000000
-0.000000
-0.000000
-0.000000
-0.000000
-0.000000
-0.000000
-0.000000
-0.000000
-0.000000
-0.000000
-0.000000
-0.000000
-0.000000
-0.000000
-0.000000
-0.000000
-0.000000
-0.000000
-0.000000
-0.000000
-0.000000
-0.000000
-0.000000
-0.000000
-0.000000
-0.000000
-0.000000
-0.000000
1.858235
-0.000000
-0.000000
-0.000000
-0.000000
-0.000000
-0.000000
-0.000000
-0.000000
-0.000000
-0.000000
-0.000000
-0.000000
-0.000000
-0.000000
-0.000000
-0.000000
-0.000000
-0.000000
-0.000000
-0.000000
-0.000000
-0.000000
-0.000000
-0.000000
-0.000000
-0.000000
2.312110
-0.000000
5.494689
7.492928
-0.000000
-0.000000
-0.000000
-0.000000
-0.000000
-0.000000
-0.000000
-0.000000
-0.000000
-0.000000
-0.000000
-0.000000
-0.000000
-0.000000
-0.000000
-0.000000
-0.000000
-0.000000
-0.000000
-0.000000
-0.000000
-0.000000
-0.000000
-0.000000
-0.000000
-0.000000
-0.000000
-0.000000
-0.000000
-0.000000
-0.000000
-0.000000
-0.000000
-0.000000
-0.000000
-0.000000
-0.000000
-0.000000
-0.000000
-0.000000
-0.000000
-0.000000
-0.000000
-0.000000
-0.000000
-0.000000
-0.000000
-0.000000
-0.000000
-0.000000
-0.000000
-0.000000
-0.000000
-0.000000
-0.000000
-0.000000
-0.000000
-0.000000
-0.000000
-0.000000
-0.000000
-0.000000
-0.000000
-0.000000
-0.000000
-0.000000
-0.000000
-0.000000
-0.000000
-0.000000
-0.000000
-0.000000
-0.000000
-0.000000
-0.000000
-0.000000
-0.000000
-0.000000
-0.000000
-0.000000
-0.000000
-0.000000
-0.000000
-0.000000
-0.000000
-0.000000
-0.000000
-0.000000
-0.000000
-0.000000
-0.000000
-0.000000
-0.000000
-0.000000
-0.000000
-0.000000
-0.000000
-0.000000
-0.000000
-0.000000
-0.000000
-0.000000
-0.000000
-0.000000
-0.000000
-0.000000
-0.000000
-0.000000
-0.000000
-0.000000
-0.000000
-0.000000
-0.000000
-0.000000
-0.000000
-0.000000
-0.000000
0.360673
0.848315
-0.000000
0.347435
-0.000000
32.686758
5.081773
1.824410
0.692515
1.985098
-0.000000
-0.000000
-0.000000
-0.000000
-0.000000
-0.000000
0.376808
-0.000000
-0.000000
-0.000000
-0.000000
-0.000000
-0.000000
-0.000000
0.298020
-0.000000
-0.000000
-0.000000
-0.000000
-0.000000
-0.000000
-0.000000
-0.000000
-0.000000
-0.000000
-0.000000
-0.000000
-0.000000
-0.000000
-0.000000
-0.000000
-0.000000
-0.000000
-0.000000
-0.000000
-0.000000
-0.000000
-0.000000
-0.000000
-0.000000
-0.000000
-0.000000
-0.000000
-0.000000
-0.000000
-0.000000
-0.000000
-0.000000
-0.000000
-0.000000
-0.000000
-0.000000
-0.000000
2.445306
-0.000000
-0.000000
-0.000000
-0.000000
-0.000000
-0.000000
-0.000000
-0.000000
-0.000000
-0.000000
-0.000000
-0.000000
-0.000000
-0.000000
-0.000000
8.959473
7.129277
0.814864
15.913036
-0.000000
-0.000000
-0.000000
3.971405
4.442467
0.812501
4.462779
-0.000000
-0.000000
-0.000000
-0.000000
-0.000000
0.790350
0.550415
-0.000000
5.072742
0.562198
1.165073
2.726201
16.893182
1.175425
3.358101
1.978315
0.290655
-0.000000
3.315667
-0.000000
1.403469
0.768047
0.998707
2.799148
4.161095
0.758764
-0.000000
0.732697
0.723609
33.296963
0.664734
-0.000000
3.293600
-0.000000
-0.000000
0.684515
-0.000000
-0.000000
-0.000000
-0.000000
-0.000000
-0.000000
-0.000000
-0.000000
-0.000000
-0.000000
-0.000000
-0.000000
-0.000000
-0.000000
-0.000000
-0.000000
-0.000000
-0.000000
-0.000000
-0.000000
-0.000000
-0.000000
-0.000000
-0.000000
-0.000000
-0.000000
-0.000000
-0.000000
-0.000000
-0.000000
-0.000000
-0.000000
-0.000000
-0.000000
-0.000000
-0.000000
-0.000000
-0.000000
-0.000000
-0.000000
-0.000000
-0.000000
-0.000000
-0.000000
-0.000000
-0.000000
-0.000000
-0.000000
-0.000000
-0.000000
-0.000000
-0.000000
-0.000000
-0.000000
-0.000000
-0.000000
-0.000000
-0.000000
-0.000000
-0.000000
-0.000000
-0.000000
-0.000000
-0.000000
-0.000000
-0.000000
-0.000000
-0.000000
-0.000000
-0.000000
-0.000000
-0.000000
-0.000000
-0.000000
-0.000000
-0.000000
-0.000000
-0.000000
-0.000000
-0.000000
-0.000000
-0.000000
-0.000000
-0.000000
-0.000000
-0.000000
-0.000000
-0.000000
-0.000000
-0.000000
-0.000000
-0.000000
-0.000000
-0.000000
-0.000000
-0.000000
-0.000000
-0.000000
-0.000000
-0.000000
-0.000000
-0.000000
-0.000000
-0.000000
-0.000000
-0.000000
-0.000000
-0.000000
-0.000000
-0.000000
-0.000000
-0.000000
-0.000000
-0.000000
-0.000000
-0.000000
-0.000000
0.415011
-0.000000
-0.000000
-0.000000
-0.000000
-0.000000
-0.000000
-0.000000
-0.000000
-0.000000
-0.000000
-0.000000
-0.000000
1.294301
1.609540
-0.000000
2.170648
-0.000000
-0.000000
10.075048
97.662716
1.926804
-0.000000
-0.000000
2.007770
11.661520
-0.000000
25.655627
2.356915
1.968323
1.645905
1.999208
-0.000000
-0.000000
-0.000000
14.111770
-0.000000
-0.000000
-0.000000
-0.000000
34.546758
0.405797
-0.000000
9.624518
-0.000000
-0.000000
-0.000000
-0.000000
-0.000000
-0.000000
-0.000000
-0.000000
-0.000000
-0.000000
-0.000000
-0.000000
-0.000000
-0.000000
-0.000000
-0.000000
-0.000000
-0.000000
-0.000000
-0.000000
-0.000000
-0.000000
-0.000000
-0.000000
-0.000000
-0.000000
-0.000000
-0.000000
-0.000000
-0.000000
-0.000000
-0.000000
-0.000000
-0.000000
-0.000000
-0.000000
-0.000000
-0.000000
-0.000000
-0.000000
-0.000000
-0.000000
-0.000000
-0.000000
-0.000000
-0.000000
-0.000000
-0.000000
-0.000000
-0.000000
-0.000000
-0.000000
-0.000000
-0.000000
-0.000000
-0.000000
-0.000000
-0.000000
-0.000000
-0.000000
-0.000000
-0.000000
-0.000000
-0.000000
-0.000000
-0.000000
-0.000000
-0.000000
-0.000000
-0.000000
-0.000000
-0.000000
-0.000000
-0.000000
-0.000000
-0.000000
-0.000000
-0.000000
-0.000000
-0.000000
7.578038
0.322503
-0.000000
0.303373
-0.000000
-0.000000
-0.000000
-0.000000
1.961504
-0.000000
-0.000000
-0.000000
3.263571
0.337745
1.597649
0.587849
-0.000000
-0.000000
-0.000000
-0.000000
-0.000000
-0.000000
-0.000000
-0.000000
-0.000000
-0.000000
-0.000000
-0.000000
-0.000000
-0.000000
-0.000000
-0.000000
-0.000000
-0.000000
-0.000000
-0.000000
-0.000000
-0.000000
-0.000000
-0.000000
-0.000000
-0.000000
-0.000000
-0.000000
-0.000000
-0.000000
-0.000000
-0.000000
-0.000000
-0.000000
-0.000000
-0.000000
-0.000000
-0.000000
-0.000000
-0.000000
-0.000000
-0.000000
-0.000000
-0.000000
-0.000000
-0.000000
-0.000000
-0.000000
-0.000000
-0.000000
-0.000000
-0.000000
-0.000000
-0.000000
-0.000000
-0.000000
-0.000000
-0.000000
-0.000000
-0.000000
-0.000000
-0.000000
-0.000000
-0.000000
10.443720
-0.000000
-0.000000
-0.000000
0.572571
-0.000000
-0.000000
1.567989
-0.000000
2.677475
-0.000000
-0.000000
18.186034
-0.000000
-0.000000
-0.000000
-0.000000
-0.000000
-0.000000
-0.000000
-0.000000
-0.000000
-0.000000
-0.000000
-0.000000
-0.000000
-0.000000
-0.000000
-0.000000
-0.000000
-0.000000
-0.000000
-0.000000
-0.000000
-0.000000
-0.000000
-0.000000
-0.000000
-0.000000
-0.000000
-0.000000
-0.000000
-0.000000
-0.000000
-0.000000
-0.000000
-0.000000
-0.000000
-0.000000
-0.000000
-0.000000
-0.000000
-0.000000
-0.000000
-0.000000
-0.000000
-0.000000
-0.000000
-0.000000
-0.000000
-0.000000
-0.000000
-0.000000
-0.000000
13.444697
1.362998
3.779131
0.467564
-0.000000
18.100830
2.451526
-0.000000
17.719542
18.786508
-0.000000
2.324837
11.508390
196.643236
-0.000000
6.345356
0.513078
1.954919
0.525509
-0.000000
5.393609
2.387104
-0.000000
2.768274
-0.000000
2.563108
-0.000000
-0.000000
-0.000000
0.517089
-0.000000
8.029714
0.445872
-0.000000
-0.000000
-0.000000
-0.000000
0.486211
-0.000000
-0.000000
0.422607
-0.000000
-0.000000
-0.000000
-0.000000
-0.000000
-0.000000
-0.000000
-0.000000
-0.000000
-0.000000
-0.000000
-0.000000
-0.000000
-0.000000
-0.000000
-0.000000
-0.000000
-0.000000
-0.000000
-0.000000
-0.000000
-0.000000
-0.000000
-0.000000
-0.000000
-0.000000
-0.000000
-0.000000
-0.000000
-0.000000
-0.000000
-0.000000
-0.000000
-0.000000
-0.000000
-0.000000
-0.000000
-0.000000
-0.000000
-0.000000
-0.000000
-0.000000
-0.000000
-0.000000
-0.000000
-0.000000
-0.000000
-0.000000
-0.000000
-0.000000
-0.000000
-0.000000
-0.000000
-0.000000
-0.000000
-0.000000
-0.000000
-0.000000
-0.000000
-0.000000
-0.000000
-0.000000
-0.000000
-0.000000
-0.000000
-0.000000
-0.000000
-0.000000
-0.000000
-0.000000
-0.000000
-0.000000
-0.000000
-0.000000
-0.000000
-0.000000
-0.000000
-0.000000
-0.000000
-0.000000
-0.000000
-0.000000
-0.000000
-0.000000
0.552414
-0.000000
-0.000000
-0.000000
-0.000000
-0.000000
-0.000000
-0.000000
-0.000000
-0.000000
-0.000000
-0.000000
-0.000000
-0.000000
-0.000000
-0.000000
-0.000000
-0.000000
-0.000000
-0.000000
-0.000000
-0.000000
-0.000000
-0.000000
-0.000000
-0.000000
-0.000000
-0.000000
2.142152
-0.000000
-0.000000
-0.000000
-0.000000
-0.000000
-0.000000
-0.000000
-0.000000
-0.000000
50.058501
-0.000000
2.685155
4.102787
-0.000000
0.454247
2.227483
8.950965
2.083066
0.499346
0.451233
-0.000000
-0.000000
-0.000000
-0.000000
-0.000000
-0.000000
-0.000000
-0.000000
-0.000000
-0.000000
-0.000000
-0.000000
0.407082
-0.000000
-0.000000
1.567524
1.269892
2.323334
-0.000000
-0.000000
-0.000000
-0.000000
-0.000000
0.388468
0.484738
-0.000000
-0.000000
16.931961
2.079157
1.510628
1.907739
-0.000000
0.374908
0.315750
9.120384
0.366728
1.726707
4.943029
3.570792
0.288252
1.261191
0.554957
-0.000000
-0.000000
-0.000000
-0.000000
1.661617
2.522197
-0.000000
-0.000000
-0.000000
-0.000000
-0.000000
-0.000000
0.358297
-0.000000
-0.000000
-0.000000
1.796785
2.584283
0.330454
1.864849
25.548701
1.946380
7.084773
2.040205
-0.000000
-0.000000
-0.000000
-0.000000
0.338733
0.305824
-0.000000
1.303148
0.330496
-0.000000
-0.000000
-0.000000
212.054500
1.919729
0.295709
0.608176
-0.000000
-0.000000
-0.000000
-0.000000
-0.000000
-0.000000
-0.000000
-0.000000
-0.000000
-0.000000
-0.000000
-0.000000
-0.000000
-0.000000
-0.000000
-0.000000
-0.000000
-0.000000
-0.000000
-0.000000
-0.000000
-0.000000
-0.000000
-0.000000
-0.000000
-0.000000
-0.000000
-0.000000
-0.000000
-0.000000
-0.000000
-0.000000
-0.000000
-0.000000
-0.000000
-0.000000
-0.000000
-0.000000
-0.000000
-0.000000
-0.000000
-0.000000
-0.000000
-0.000000
-0.000000
-0.000000
-0.000000
-0.000000
-0.000000
-0.000000
-0.000000
-0.000000
-0.000000
-0.000000
-0.000000
-0.000000
-0.000000
-0.000000
-0.000000
-0.000000
-0.000000
-0.000000
-0.000000
-0.000000
-0.000000
-0.000000
-0.000000
-0.000000
-0.000000
-0.000000
-0.000000
-0.000000
-0.000000
-0.000000
-0.000000
-0.000000
-0.000000
-0.000000
-0.000000
0.489773
-0.000000
-0.000000
-0.000000
-0.000000
-0.000000
-0.000000
-0.000000
-0.000000
-0.000000
-0.000000
-0.000000
-0.000000
-0.000000
-0.000000
-0.000000
-0.000000
-0.000000
-0.000000
-0.000000
-0.000000
-0.000000
-0.000000
-0.000000
-0.000000
-0.000000
-0.000000
-0.000000
-0.000000
-0.000000
-0.000000
-0.000000
-0.000000
-0.000000
-0.000000
-0.000000
-0.000000
-0.000000
-0.000000
-0.000000
-0.000000
-0.000000
-0.000000
-0.000000
-0.000000
-0.000000
-0.000000
-0.000000
-0.000000
-0.000000
-0.000000
-0.000000
-0.000000
-0.000000
-0.000000
-0.000000
-0.000000
-0.000000
-0.000000
-0.000000
-0.000000
-0.000000
-0.000000
-0.000000
-0.000000
-0.000000
-0.000000
-0.000000
-0.000000
-0.000000
-0.000000
-0.000000
-0.000000
-0.000000
-0.000000
-0.000000
-0.000000
-0.000000
-0.000000
-0.000000
-0.000000
-0.000000
-0.000000
-0.000000
-0.000000
-0.000000
-0.000000
-0.000000
-0.000000
-0.000000
-0.000000
-0.000000
-0.000000
-0.000000
-0.000000
-0.000000
-0.000000
-0.000000
-0.000000
-0.000000
-0.000000
-0.000000
-0.000000
-0.000000
-0.000000
-0.000000
-0.000000
-0.000000
-0.000000
-0.000000
-0.000000
-0.000000
-0.000000
-0.000000
-0.000000
-0.000000
-0.000000
-0.000000
-0.000000
-0.000000
-0.000000
-0.000000
-0.000000
-0.000000
-0.000000
-0.000000
-0.000000
-0.000000
-0.000000
-0.000000
-0.000000
-0.000000
-0.000000
-0.000000
-0.000000
-0.000000
-0.000000
-0.000000
-0.000000
-0.000000
-0.000000
-0.000000
-0.000000
-0.000000
-0.000000
-0.000000
-0.000000
-0.000000
-0.000000
-0.000000
-0.000000
-0.000000
-0.000000
-0.000000
-0.000000
-0.000000
-0.000000
-0.000000
-0.000000
-0.000000
-0.000000
-0.000000
-0.000000
-0.000000
-0.000000
-0.000000
-0.000000
-0.000000
-0.000000
-0.000000
-0.000000
-0.000000
-0.000000
-0.000000
-0.000000
-0.000000
-0.000000
-0.000000
-0.000000
-0.000000
-0.000000
-0.000000
-0.000000
-0.000000
-0.000000
-0.000000
-0.000000
-0.000000
-0.000000
-0.000000
-0.000000
-0.000000
-0.000000
-0.000000
-0.000000
-0.000000
-0.000000
-0.000000
-0.000000
-0.000000
-0.000000
-0.000000
-0.000000
-0.000000
0.629503
-0.000000
-0.000000
-0.000000
-0.000000
-0.000000
-0.000000
-0.000000
-0.000000
-0.000000
-0.000000
-0.000000
-0.000000
-0.000000
-0.000000
-0.000000
-0.000000
-0.000000
-0.000000
-0.000000
-0.000000
-0.000000
-0.000000
-0.000000
-0.000000
-0.000000
-0.000000
-0.000000
-0.000000
-0.000000
-0.000000
-0.000000
-0.000000
-0.000000
-0.000000
-0.000000
-0.000000
-0.000000
-0.000000
-0.000000
-0.000000
-0.000000
-0.000000
-0.000000
-0.000000
-0.000000
-0.000000
-0.000000
-0.000000
-0.000000
-0.000000
-0.000000
-0.000000
-0.000000
-0.000000
-0.000000
-0.000000
-0.000000
-0.000000
-0.000000
-0.000000
-0.000000
-0.000000
-0.000000
-0.000000
-0.000000
-0.000000
-0.000000
-0.000000
-0.000000
-0.000000
-0.000000
-0.000000
-0.000000
-0.000000
-0.000000
-0.000000
-0.000000
-0.000000
-0.000000
-0.000000
-0.000000
-0.000000
-0.000000
-0.000000
-0.000000
-0.000000
-0.000000
-0.000000
-0.000000
-0.000000
-0.000000
-0.000000
-0.000000
-0.000000
-0.000000
-0.000000
-0.000000
-0.000000
-0.000000
-0.000000
-0.000000
-0.000000
-0.000000
-0.000000
-0.000000
0.342654
-0.000000
-0.000000
0.363600
-0.000000
-0.000000
0.457658
0.334295
0.345894
0.324734
0.641790
-0.000000
-0.000000
-0.000000
-0.000000
-0.000000
-0.000000
-0.000000
-0.000000
-0.000000
-0.000000
-0.000000
-0.000000
-0.000000
-0.000000
-0.000000
1.903315
-0.000000
-0.000000
-0.000000
-0.000000
-0.000000
-0.000000
-0.000000
-0.000000
-0.000000
-0.000000
-0.000000
-0.000000
-0.000000
-0.000000
-0.000000
-0.000000
-0.000000
-0.000000
-0.000000
-0.000000
-0.000000
-0.000000
-0.000000
-0.000000
-0.000000
-0.000000
-0.000000
-0.000000
-0.000000
-0.000000
-0.000000
-0.000000
-0.000000
-0.000000
-0.000000
-0.000000
-0.000000
-0.000000
-0.000000
-0.000000
-0.000000
-0.000000
-0.000000
-0.000000
-0.000000
-0.000000
-0.000000
-0.000000
-0.000000
-0.000000
-0.000000
-0.000000
-0.000000
-0.000000
-0.000000
-0.000000
-0.000000
-0.000000
-0.000000
-0.000000
-0.000000
-0.000000
-0.000000
-0.000000
-0.000000
-0.000000
-0.000000
-0.000000
-0.000000
-0.000000
-0.000000
-0.000000
-0.000000
-0.000000
-0.000000
-0.000000
-0.000000
-0.000000
-0.000000
-0.000000
-0.000000
-0.000000
-0.000000
-0.000000
-0.000000
-0.000000
-0.000000
-0.000000
-0.000000
-0.000000
-0.000000
-0.000000
-0.000000
-0.000000
-0.000000
-0.000000
-0.000000
-0.000000
-0.000000
-0.000000
-0.000000
-0.000000
-0.000000
-0.000000
-0.000000
-0.000000
-0.000000
-0.000000
-0.000000
-0.000000
-0.000000
-0.000000
SCALARS wear float 1
LOOKUP_TABLE default
0.000000
0.000000
0.000000
0.000000
0.000000
0.000000
0.000000
0.000000
0.000000
0.000000
0.000000
0.000000
0.000000
0.000000
0.000000
0.000000
0.000000
0.000000
0.000000
0.000000
0.000000
0.000000
0.000000
0.000000
0.000000
0.000000
0.000000
0.000000
0.000000
0.000000
0.000000
0.000000
0.000000
0.000000
0.000000
0.000000
0.000000
0.000000
0.000000
0.000000
0.000000
0.000000
0.000000
0.000000
0.000000
0.000000
0.000000
0.000000
0.000000
0.000000
0.000000
0.000000
0.000000
0.000000
0.000000
0.000000
0.000000
0.000000
0.000000
0.000000
0.000000
0.000000
0.000000
0.000000
0.009629
221.365205
27.433203
0.000000
342.206233
9.215490
244.698578
0.000000
4.825946
46.108096
0.000000
3.189273
91.054185
322.628070
17.293911
8.271856
0.000000
0.000000
0.000000
0.000000
0.000000
0.000000
0.000000
0.000000
0.000000
0.000000
0.000000
0.000000
0.000000
0.000000
0.000000
0.000000
0.000000
0.000000
0.000000
0.000000
0.000000
0.000000
0.000000
0.000000
0.000000
0.000000
865.098381
0.000000
0.000000
0.000000
0.000000
0.000000
0.000000
0.000000
0.000000
0.000000
0.000000
0.000000
0.000000
0.000000
0.000000
0.000000
0.000000
0.000000
0.000000
0.000000
0.000000
0.000000
834472.108823
1001848.687550
1520914.866094
1068587.106292
1013278.026080
1326589.190259
863318.276709
1146183.103873
1255039.014466
1334512.579883
1196769.943706
935523.930682
921593.635133
358433.017592
282168.318842
220486.289090
0.000000
0.000000
0.000000
0.000000
0.000000
0.000000
0.000000
0.000000
0.000000
0.000000
0.000000
0.000000
0.000000
0.000000
0.000000
0.000000
132.336987
8007.212049
0.000000
138.675609
0.000000
0.000000
7051.990388
284.943876
0.000000
201.431306
0.000000
0.000000
12715.399542
661.048215
0.000000
773.301269
0.000000
0.000000
0.000000
152.739815
1606.720174
2912.499852
0.000000
0.000000
0.000000
0.000000
0.000000
0.000000
0.000000
0.000000
0.000000
4.876439
11711.012846
509.511513
13861.883360
5483.460680
693.360502
26017.364813
19449.164006
148.087847
49136.170555
10611.579896
58457.269743
31427.970704
10583.066269
7047.007702
14113.651527
6232.507697
0.000000
0.000000
0.000000
0.000000
0.000000
0.000000
0.000000
0.000000
0.000000
0.000000
0.000000
0.000000
0.000000
0.000000
0.000000
0.000000
0.000000
0.000000
0.000000
0.000000
0.000000
0.000000
0.000000
0.000000
0.000000
0.000000
0.000000
0.000000
0.000000
0.000000
0.000000
0.000000
0.000000
0.000000
0.000000
0.000000
0.000000
0.000000
0.000000
0.000000
0.000000
0.000000
0.000000
0.000000
191.737070
22.297414
0.000000
284.218741
0.000000
0.000000
0.000000
0.000000
0.000000
0.000000
0.000000
0.000000
0.000000
0.000000
0.000000
0.000000
0.000000
0.000000
0.000000
0.000000
0.000000
0.000000
0.000000
0.000000
0.000000
0.000000
0.000000
0.000000
0.000000
0.000000
0.000000
0.000000
0.000000
0.000000
0.000000
18673.062779
0.000000
0.000000
0.000000
0.000000
0.000000
0.000000
0.000000
0.000000
0.000000
0.000000
0.000000
0.000000
0.000000
0.000000
0.000000
0.000000
0.000000
0.000000
0.000000
0.000000
0.000000
0.000000
0.000000
0.000000
0.000000
0.000000
0.000000
0.000000
0.000000
0.000000
0.000000
0.000000
19304.256021
34814.237928
56498.383579
17262.313893
76833.105772
91020.608869
128471.103736
55313.840255
190361.834003
146639.746318
177446.024371
200311.586139
25419.132166
134788.198408
296489.182246
827639.976713
0.000000
18.256821
4555.050057
497.729422
6603.009414
385.379807
859.704396
4.558244
1476.804478
22670.006934
4857.259081
5210.660652
496.479810
10841.824352
3655.347609
9838.853081
0.000000
0.000000
0.000000
0.000000
0.000000
0.000000
0.000000
0.000000
38.856090
430.897807
9.271110
0.000000
0.000000
0.000000
0.000000
0.000000
51.988669
40.565457
5569.961107
17030.482495
0.000000
0.000000
0.000000
5.228833
0.000000
0.000000
0.000000
0.000000
9.897730
0.000000
0.000000
0.000000
32686.290693
56661.645907
20280.366163
34275.833979
22374.483734
3845.919244
8821.213698
44802.241219
546.335684
8079.507849
103.994170
474.563671
8361.963196
17068.362743
2329.695028
4601.924829
20516.405369
14396.011794
19287.500462
84857.227959
14286.186536
16143.462870
23133.115360
31024.867179
49191.394136
96822.103206
48194.094998
83822.054866
5422.851192
19917.626810
53671.463725
15730.785640
51605.200210
16346.281609
23082.969237
12417.701836
7753.547165
7634.763437
4012.928976
26649.661892
18338.083429
11027.481669
9910.057342
5496.682380
3959.469311
4004.760267
9067.814266
967.364087
16551.274949
26805.406146
29432.540221
9309.378883
13198.145118
7684.721646
13203.277688
34518.783999
109160.588957
45694.533246
18880.401246
98329.194581
43918.547104
11353.452867
11451.958336
20503.380545
0.000000
0.000000
0.000000
0.000000
0.000000
25.412309
24.816565
0.000000
270.908977
100.386462
276.609265
11.794867
0.000000
0.000000
14.384636
0.000000
2.148515
9.816202
391.868601
1.923224
0.000000
1.240936
10.480609
3.358495
0.000000
0.000000
0.000000
0.299632
0.827538
6.093427
124.462685
0.000000
0.000000
0.000000
0.000000
0.000000
0.000000
0.000000
0.000000
0.000000
0.000000
0.000000
0.000000
0.000000
0.000000
0.000000
0.000000
0.000000
0.000000
0.000000
0.000000
0.000000
0.000000
0.000000
0.000000
0.000000
0.000000
0.000000
0.000000
0.000000
0.000000
0.000000
0.000000
0.000000
0.000000
0.000000
0.000000
0.000000
0.000000
0.000000
0.000000
0.000000
0.000000
0.000000
0.000000
0.000000
0.000000
0.000000
0.000000
0.000000
0.000000
0.000000
0.000000
0.000000
0.000000
0.000000
0.000000
0.000000
0.000000
0.000000
0.000000
0.000000
0.000000
0.000000
0.000000
0.000000
0.000000
0.000000
0.000000
0.000000
0.000000
0.000000
0.000000
0.000000
0.000000
0.000000
0.000000
0.000000
0.000000
0.000000
0.000000
0.000000
18.348495
376.990002
19.249580
14.438623
193.185047
25.489716
1466.379896
833.362324
82.140439
5567.767917
33507.320248
25.636705
680.726995
240.075911
3.001509
0.000000
38161.222167
86262.084029
170807.085599
156076.089413
111008.692704
238645.167710
363869.162810
277975.322874
274574.557907
404403.306173
428419.281157
428548.237947
95339.104176
171668.216180
209736.923606
215805.466232
165902.364817
63753.373985
62189.989819
182671.258947
18600.982474
124706.511552
19984.071240
98119.539830
8343.757045
1334.167861
8878.992631
21788.270844
111240.123613
81471.582769
35951.606721
179439.263636
0.000000
0.000000
0.000000
0.000000
0.000000
0.000000
0.000000
0.000000
0.000000
0.000000
0.000000
0.000000
0.000000
0.000000
0.000000
0.000000
0.000000
0.000000
0.000000
0.000000
0.000000
0.000000
0.000000
0.000000
0.000000
0.000000
0.000000
0.000000
0.000000
0.000000
0.000000
0.000000
387445.609113
104852.339743
0.000000
727785.919495
0.000000
0.000000
0.000000
571316.254582
0.000000
0.000000
0.000000
0.000000
868304.059166
931699.166022
220531.835962
715682.213409
0.000000
0.000000
0.000000
0.000000
0.000000
0.000000
0.000000
0.000000
0.000000
0.000000
3833.495403
0.000000
0.000000
0.000000
0.000000
0.000000
0.000000
0.000000
0.000000
0.000000
0.000000
0.000000
0.000000
0.000000
22.732113
44.434424
602.226586
0.000000
0.000000
0.000000
0.000000
0.000000
54802.747325
44598.617921
17296.935337
59974.297337
6852.380664
29817.996603
22432.252118
16651.432304
192.043466
761.881510
532.094837
14129.510978
57580.688813
27959.868807
8462.535861
64275.598801
27.140297
26.958299
42.152407
157.210364
533.279103
93.306511
201.389387
24989.636592
0.000000
0.000000
62.397202
2.851911
136.560067
104.465494
45.038719
91.567063
0.000000
0.000000
0.000000
0.000000
0.000000
0.000000
0.000000
0.000000
0.000000
0.000000
0.000000
0.000000
0.000000
0.000000
0.000000
0.000000
0.000000
0.000000
0.000000
0.000000
0.000000
0.000000
0.000000
0.000000
0.000000
0.000000
0.000000
0.000000
0.000000
0.000000
0.000000
0.000000
0.000000
0.000000
0.000000
0.000000
0.000000
0.000000
0.000000
0.000000
0.000000
0.000000
0.000000
0.000000
0.000000
0.000000
0.000000
0.000000
157249.030067
208428.688071
73862.496025
654552.135695
15968.136154
892053.592677
707559.293170
975628.273534
4068.237818
39393.827955
10661.626224
3366.260967
1122652.370196
942787.576762
455748.763146
890374.258843
0.000000
14.031357
9.933817
12.126980
0.000000
0.000000
87.834679
0.000000
0.000000
39.469227
25060.510422
2512.288147
63.685478
430.801499
80.621695
4.690781
12.249973
32.139370
0.000000
2850.390728
0.000000
0.000000
16.624034
7.796935
3.548079
25.597530
0.000000
26.657586
4774.091285
2330.921994
557.063044
777184.927892
9029.438536
40952.953438
35595.146607
2226.355724
5918.905427
11755.779482
5135.196728
488.328140
152036.982108
15094.877105
96557.082647
105075.171508
6039.580627
1550.012881
2588.458295
1540.108434
248876.078863
202916.861285
72261.744196
139280.348911
57331.166881
93708.772664
55670.385096
25306.981930
20517.295142
23462.743801
519.638246
14797.079280
118570.762947
125858.681469
38803.709149
56842.385590
22798.932805
59242.514979
5799.586632
84196.794810
68947.694345
60952.926205
35878.703196
32841.489690
12825.307500
24177.327573
22742.907657
23231.986332
111842.998047
168615.186604
181768.442804
335554.938954
16043.520733
13820.553569
7918.411468
947.042230
23826.299088
4.820413
71.325025
16.803391
5097.143407
9625.935255
1732.598932
110.308212
49.806867
41.627456
755.315900
290.398029
0.000000
0.000000
0.000000
0.000000
0.000000
0.000000
0.000000
0.000000
0.000000
0.000000
0.000000
0.000000
0.000000
0.000000
0.000000
0.000000
0.000000
0.000000
0.000000
0.000000
0.000000
0.000000
0.000000
0.000000
0.000000
0.000000
0.000000
0.000000
0.000000
0.000000
0.000000
0.000000
0.000000
0.000000
0.000000
0.000000
0.000000
0.000000
0.000000
0.000000
0.000000
0.000000
0.000000
0.000000
0.000000
0.000000
0.000000
0.000000
0.000000
0.000000
0.000000
0.000000
0.000000
0.000000
0.000000
0.000000
0.000000
0.000000
0.000000
0.000000
0.000000
0.000000
0.000000
0.000000
18654.217827
35315.366846
1414.088667
11575.591293
6889.288841
590.252348
385.795400
596.237044
336.199222
645.331912
2543.224275
817.031661
679.231883
366.817988
963.436051
363.722754
3164.154137
2806.113222
8581.733510
17319.349788
841.043620
8436.099575
20181.884902
91857.666328
8330.205015
1933.204070
3971.672633
8878.102242
48501.435541
24451.026711
22465.253964
73290.691686
7.685367
270.385239
64.672153
119.531657
4885.059884
86.804548
823.350947
1008.690120
904.886571
23926.631781
2749.085708
310.813853
630.695441
1547.979647
206.684692
133.376060
347.152465
150.903606
1024.289699
18686.923955
423.546978
62076.659135
12925.329715
7849.043881
11916.247226
12257.376462
14753.556474
47750.307205
4240.206762
32124.784234
40239.688345
14460.366315
1263.866853
517.056982
2116.651185
6305.027373
574.673189
8518.689907
2607.534323
3867.768949
4274.263518
451.891569
4289.635313
3746.544799
10801.147753
36894.471753
50370.163534
8894.172436
13296.527158
10832.830701
1800.493529
730.062027
13574.194120
2357.167670
10551.209902
2305.601607
74868.120233
31208.195707
20181.732961
29764.883906
3460.327152
4680.995913
2255.674779
3033.249561
44668.282839
57941.250194
33034.303840
54125.101696
111200.693753
69692.222871
24324.663850
26135.239561
13509.899904
8973.298087
13995.142673
61191.877280
68174.181658
120573.605892
77069.504435
138542.267717
8915.096360
15177.558850
4505.681331
37142.505622
25486.341662
49524.142561
76770.402777
85447.276386
36941.507312
121633.234621
257098.085872
116912.175833
118276.860109
92622.886008
123702.993995
86627.128443
488.066086
1577.419288
445.754559
6537.423941
2302.273863
3798.431057
68810.155158
19444.813887
876.096114
737.591736
3421.636026
6261.011149
117479.411198
44376.597896
35572.402139
57262.860504
0.000000
0.000000
0.000000
0.000000
0.000000
2118.419854
47.244162
400.684766
0.000000
5.997836
264.082361
3064.530709
1139.067036
20.147075
952.745813
19.076780
0.000000
0.000000
0.000000
0.000000
0.000000
0.000000
0.000000
0.000000
0.000000
0.000000
0.000000
0.000000
0.000000
0.000000
0.000000
0.000000
0.000000
0.000000
0.000000
0.000000
0.000000
0.000000
0.000000
0.000000
0.000000
0.000000
0.000000
0.000000
0.000000
0.000000
0.000000
0.000000
0.000000
0.000000
0.000000
0.000000
0.000000
0.000000
0.000000
0.000000
0.000000
0.000000
0.000000
0.000000
0.000000
0.000000
0.000000
0.000000
0.000000
0.000000
0.000000
0.000000
0.000000
5549.215762
0.000000
545.734526
0.000000
0.000000
1584.259831
4581.728516
11925.657100
0.000000
205.346308
883.308918
114.071048
1904.768207
126.752624
120.241959
139.674990
302.232259
2421.862552
1159.908140
0.000000
54.117469
0.000000
329.123717
324.210489
4164.191580
1192.601137
935.991555
710.814671
41.709353
305.459543
680.571176
0.000000
4208.304251
0.000000
0.000000
0.000000
0.000000
583.917771
0.000000
0.000000
0.000000
368.145022
719.647666
0.000000
0.000000
0.000000
0.000000
0.000000
0.000000
0.000000
0.000000
0.000000
0.000000
0.000000
0.000000
0.000000
0.000000
0.000000
0.000000
0.000000
0.000000
0.000000
0.000000
0.000000
0.000000
0.000000
0.000000
0.000000
0.000000
0.000000
0.000000
0.000000
0.000000
0.000000
0.000000
0.000000
0.000000
0.000000
0.000000
0.000000
0.000000
0.000000
0.000000
0.000000
0.000000
0.000000
0.000000
0.000000
0.000000
0.000000
0.000000
0.000000
0.000000
0.000000
0.000000
0.000000
0.000000
0.000000
0.000000
0.000000
0.000000
0.000000
0.000000
0.000000
0.000000
0.000000
0.000000
16.885590
627.703764
51.355713
6.543192
535.326902
154.193463
1403.020546
73.614026
0.000000
0.000000
0.000000
0.000000
0.703497
8.131125
206.528828
11.020704
0.000000
0.000000
0.000000
0.000000
0.000000
0.000000
0.000000
0.000000
0.000000
0.000000
0.000000
0.000000
0.000000
0.000000
0.000000
0.000000
0.000000
0.000000
0.000000
0.000000
0.000000
0.000000
0.000000
0.000000
0.000000
0.000000
0.000000
0.000000
0.000000
0.000000
0.000000
0.000000
0.000000
0.000000
0.000000
0.000000
0.000000
0.000000
94.720656
0.000000
185.377653
0.000000
0.000000
0.000000
0.000000
0.000000
0.000000
0.000000
90.418898
184.439680
395.686209
784.686721
56.807082
709.609799
34.108693
85.108180
429.728214
46.406227
404.185657
256.750216
298.479320
0.000000
0.000000
0.000000
252.215584
29.844038
0.000000
2712.579824
99.808443
0.984244
0.987793
0.000000
1.420169
7843.744554
16087.599682
701.355192
0.000000
0.000000
1.327203
250.408442
95.035057
433.175877
1795.733786
93.491848
1761.658236
6.143229
23.020792
59.842552
78.673889
310.774902
108.657753
25.161836
338.863463
40.366009
373.118617
9.058690
0.000000
1411.038310
0.000000
0.000000
1098.725091
1203.369298
16134.438006
3841.519557
53.063836
1810.148722
4669.438356
3590.683971
11.180921
6468.464978
551.693044
87.672308
0.000000
0.000000
0.000000
0.000000
0.000000
1624.127994
0.000000
0.000000
0.000000
0.000000
0.000000
0.000000
1025.793471
0.000000
0.000000
6072.783760
0.000000
0.000000
0.000000
0.000000
0.000000
0.000000
0.000000
0.000000
0.000000
1159.644615
0.000000
0.000000
0.000000
0.000000
0.000000
0.000000
0.000000
0.000000
0.000000
0.000000
0.000000
0.000000
0.000000
0.000000
0.000000
0.000000
40.901264
0.000000
0.000000
0.000000
0.000000
0.000000
0.000000
0.000000
388.722658
0.000000
449.089151
0.000000
1037.099139
0.000000
0.000000
2620.246268
69385.667246
152.332773
0.000000
0.000000
24.795468
0.000000
6816.528671
0.000000
5232.974657
5625.080591
0.000000
8215.638511
0.000000
1976.511219
1235.430831
0.000000
3745.157346
2235.892313
761.987501
0.000000
1325.282541
1215.929591
96.591752
3184.775318
10068.626742
27846.887913
3500.760997
42193.558323
46715.893180
5661.850532
6140.620920
4697.211494
148.043352
10059.320211
53043.295032
16570.290254
26496.957607
87195.776341
1712.489259
9.256269
1683.072206
0.000000
5.836733
15032.282137
22.543195
1.318756
1490.830458
986.659060
1283.848494
7532.415225
2.683996
33564.687932
438.556408
1396.224693
0.000000
0.000000
0.000000
0.000000
0.000000
0.000000
0.000000
0.000000
792.521270
0.000000
1608.801814
0.000000
0.000000
0.000000
0.000000
0.000000
0.000000
0.000000
0.000000
0.000000
3511.119654
198.319012
0.000000
2399.042866
161.526977
0.000000
31.400048
0.000000
0.000000
680.999167
0.000000
0.000000
0.000000
0.000000
0.000000
0.000000
0.000000
0.000000
0.000000
0.000000
0.000000
0.000000
0.000000
0.000000
0.000000
0.000000
0.000000
0.000000
312.094883
0.000000
0.000000
0.000000
0.000000
0.000000
0.000000
0.000000
0.000000
0.000000
0.000000
0.000000
0.000000
0.000000
0.000000
0.000000
0.000000
78.144079
0.000000
0.000000
102.064967
0.000000
0.000000
0.000000
0.000000
175.349078
0.000000
0.000000
0.000000
0.000000
0.000000
0.000000
0.000000
812.093480
84.721856
0.000000
1319.695188
0.000000
153.051573
0.000000
70.694335
897.901623
99.233031
171.047957
0.000000
0.000000
0.000000
0.000000
172.175637
33.760341
272.061194
561.942255
263.824973
422.445208
192.501994
35.914044
232.465677
40.592024
182.609525
322.657849
657.091504
27.955612
1375.707890
523.802514
