
atom_style	granular
atom_modify	map array
boundary	f f f
newton		off

communicate	single vel yes
processors 	* * *

units		si

region		reg block -0.16 0.16 -0.16 0.16 -0.16 0.16. units box
create_box	2 reg

neighbor	0.004 bin
neigh_modify	delay 0

#Material properties #First material is limestone and second is steel
fix 		m1 all property/global youngsModulus peratomtype 45.e9 200.e9 
fix 		m2 all property/global poissonsRatio peratomtype 0.25 0.3
fix 		m3 all property/global coefficientRestitution peratomtypepair 2 &
			 0.8 0.8 &
			 0.8 0.8 
fix 		m4 all property/global coefficientFriction peratomtypepair 2 &
			 0.77 0.47 &
			 0.47 0.62
fix 		m5 all property/global characteristicVelocity scalar 0.5.


#New pair style
pair_style 	gran/hertz/history 
pair_coeff	* *

timestep	0.000001

fix		gravi all gravity 9.81 vector 0.0 0.0 -1.0

#walls
fix		boxwalls_x1 all wall/gran/hertz/history primitive type 1 xplane -0.155
fix		boxwalls_x2 all wall/gran/hertz/history primitive type 1 xplane +0.155
fix		boxwalls_y1 all wall/gran/hertz/history primitive type 1 yplane -0.155
fix		boxwalls_y2 all wall/gran/hertz/history primitive type 1 yplane +0.155
fix		boxwalls_z1 all wall/gran/hertz/history primitive type 1 zplane -0.155
fix		boxwalls_z2 all wall/gran/hertz/history primitive type 1 zplane +1.155

#import mesh from cad:
group		cad_group_1 region reg
fix		cad1 cad_group_1 mesh/surface file Ball_Mill.stl type 2  move 0. 0. 0. &
		scale 0.001  rotate axis 0. 1. 0. angle 0.  rotate axis 0. 0. 1. angle 0.

#use the imported mesh (drum) as granular wall
fix		drum_mixer all wall/gran/hertz/history mesh n_meshes 1 meshes cad1

region		reg_insert block -0.14 0.14 -0.1 0.1 0.03 0.1. units box

#particle distributions
#fix		pts1 all particletemplate/sphere 1 atom_type 1 density constant 2700 radius constant 0.008
#fix		pts2 all particletemplate/sphere 1 atom_type 1 density constant 7800 radius constant 0.025  
#fix		pdd1 all particledistribution/discrete 1.  2 pts1 0.4 pts2 0.4

#particle insertion
region		reg_block block -0.14 0.14 -0.1 0.1 0.03 0.1. units box

group		group_1 region reg
fix		ins_1 group_1 pour/legacy 11800 1 1 vol 0.6 10000 diam 0.008 0.008 dens 2700 2700 vel 0. 0. 0. 0. -1.0. region reg_block

group		group_2 region reg
fix		ins_2 group_2 pour/legacy 650 2 1 vol 0.6 10000 diam 0.025 0.025 dens 8000 8000 vel 0. 0. 0. 0. -1.0. region reg_block

#particle insertion
#fix		ins all insert/pack seed 100001 distributiontemplate pdd1 &
#		insert_every once overlapcheck yes all_in yes volumefraction_region 0.5 region reg_insert ntry_mc 10000

#apply nve integration
fix		integr all nve/sphere

#output settings, include total thermal energy
compute		1 all erotate/sphere
thermo_style	custom step atoms ke c_1 vol
thermo		1000
thermo_modify	lost ignore norm no
compute_modify	thermo_temp dynamic yes

#insert the first particles so that dump is not empty
dump		particles group_1 custom 1000 post/dump*.particles id type type x y z ix iy iz vx vy vz fx fy fz omegax omegay omegaz radius
dump		balls group_2 custom 1000 post/dump*.balls id type type x y z ix iy iz vx vy vz fx fy fz omegax omegay omegaz radius
dump 		geometry cad_group_1 mesh/stl 1000 post/dump*.stl cad1 

#restart file
restart 10000 tmp.restart

#insert particles
run		100000 

#Setting up rotation
fix		rotate_drum all move/mesh mesh cad1   rotate origin 0. 0. 0. axis 1. 0. 0. period 1.0.

#define fragments for particle breakage, particle radii are relative
fix	       fragments all particletemplate/multiplespheres 1 atom_type 1 density constant 2700 nspheres 10 ntry 1000000 &
		spheres file fragmentfile scale 1.0

#generating particles
fix		pdfragments all particledistribution/discrete 1.  1 fragments 1.


#fix to break particle
fix		break all breakparticle/force seed 10001 distributiontemplate pdfragments every 100 ECS_treshold 0.5.


#insert particles
run		10000000 




