#Conveyor (600C) and Chute
atom_style granular
atom_modify map array
boundary f f f
newton off

communicate single vel yes

units si

region reg block 0.0 3.3 -0.3 0.8 -0.5 3.0 units box
create_box 1 reg

neighbor 0.01 bin
neigh_modify delay 0

#Material properties required for new pair styles

fix m1 all property/global youngsModulus peratomtype 5.e6
fix m2 all property/global poissonsRatio peratomtype 0.45
fix m3 all property/global coefficientRestitution peratomtypepair 1 0.3
fix m4 all property/global coefficientFriction peratomtypepair 1 0.5

#heat transfer
fix ftco all property/global thermalConductivity peratomtype 100.
fix ftca all property/global thermalCapacity peratomtype 10.
fix heattransfer all heat/gran initial_temperature 300.

#New pair style
pair_style gran/hertz/history #Hertzian without cohesion
pair_coeff * *

timestep 0.00001

fix gravi all gravity 9.81 vector 0.0 0.0 -1.0

#granular walls
fix c1 all mesh/surface file conveyor_belt.stl type 1 temperature 600 surface_vel 4.0 0.0 0.0
fix hood all mesh/surface file hood.stl type 1 curvature 0.01
fix spoon all mesh/surface file spoon.stl type 1 curvature 1e-5
fix inface all mesh/surface file insertion_face.stl type 1
fix wall all wall/gran/hertz/history mesh n_meshes 3 meshes c1 hood spoon

#distributions for insertion
fix pts1 all particletemplate/sphere 1 atom_type 1 density constant 2500 radius constant 0.030
fix pdd1 all particledistribution/discrete 1. 1 pts1 1.0

#region for insertion
group nve_group region reg

#particle insertion
fix ins nve_group insert/stream seed 5330 distributiontemplate pdd1 &
maxattempt 100 nparticles 10000 massrate 100.0 overlapcheck yes vel constant 0. 0. -1.0 &
insertion_face inface extrude_length 0.5

#apply nve integration to all particles that are inserted as single particles
fix integr all nve/sphere

#output settings, include total thermal energy
fix ts all check/timestep/gran 1000 0.1 0.1
compute rke all erotate/sphere
thermo_style custom step atoms ke c_rke f_heattransfer
thermo 1000
thermo_modify lost ignore norm no
compute_modify thermo_temp dynamic yes

#insert the first particles so that dump is not empty
run 1
dump dmp all custom 1000 post/dump*.Con_ht id type type x y z ix iy iz vx vy vz fx fy fz omegax omegay omegaz&
radius f_Temp[0]
dump dumpstl all mesh/stl 1000 post/dump*.stl

#insert particles
run 300000 upto
unfix ins
